\ Model MIP
\ LP format - for model browsing. Use MPS format to capture full model detail.
Minimize
  0 F_1_6 + 0 F_1_8 + 0 F_1_13 + 0 F_1_30 + 0 F_2_6 + 0 F_2_30 + 0 F_3_7
   + 0 F_3_11 + 0 F_3_16 + 0 F_3_20 + 0 F_3_24 + 0 F_3_27 + 0 F_4_11
   + 0 F_4_12 + 0 F_4_16 + 0 F_4_17 + 0 F_4_20 + 0 F_4_21 + 0 F_4_24
   + 0 F_4_27 + 0 F_6_10 + 0 F_6_11 + 0 F_6_12 + 0 F_6_17 + 0 F_6_18
   + 0 F_6_19 + 0 F_6_20 + 0 F_6_21 + 0 F_6_22 + 0 F_6_23 + 0 F_6_24
   + 0 F_6_27 + 0 F_7_14 + 0 F_7_15 + 0 F_8_12 + 0 F_8_16 + 0 F_8_19
   + 0 F_8_20 + 0 F_8_23 + 0 F_8_24 + 0 F_8_26 + 0 F_8_27 + 0 F_8_29
   + 0 F_9_16 + 0 F_9_17 + 0 F_9_20 + 0 F_9_21 + 0 F_9_24 + 0 F_9_27
   + 0 F_10_30 + 0 F_11_15 + 0 F_11_25 + 0 F_11_28 + 0 F_11_30 + 0 F_13_17
   + 0 F_13_18 + 0 F_13_19 + 0 F_13_20 + 0 F_13_23 + 0 F_13_24 + 0 F_13_26
   + 0 F_13_27 + 0 F_13_29 + 0 F_14_20 + 0 F_14_24 + 0 F_14_27 + 0 F_15_20
   + 0 F_15_21 + 0 F_15_24 + 0 F_15_27 + 0 F_16_25 + 0 F_16_28 + 0 F_16_30
   + 0 F_17_25 + 0 F_17_28 + 0 F_17_30 + 0 F_18_30 + 0 F_19_30 + 0 F_20_25
   + 0 F_20_28 + 0 F_20_30 + 0 F_21_25 + 0 F_21_28 + 0 F_21_30 + 0 F_22_30
   + 0 F_23_30 + 0 F_24_28 + 0 F_24_30 + 0 F_26_30 + 0 L_1_6 + 0 L_1_8
   + 0 L_1_13 + 0 L_1_30 + 0 L_2_6 + 0 L_2_8 + 0 L_2_13 + 0 L_2_30
   + 0 L_3_11 + 0 L_3_16 + 0 L_3_17 + 0 L_3_20 + 0 L_3_21 + 0 L_3_24
   + 0 L_3_27 + 0 L_4_12 + 0 L_4_17 + 0 L_4_21 + 0 L_4_24 + 0 L_4_27
   + 0 L_5_13 + 0 L_5_30 + 0 L_6_10 + 0 L_6_11 + 0 L_6_16 + 0 L_6_17
   + 0 L_6_18 + 0 L_6_19 + 0 L_6_20 + 0 L_6_21 + 0 L_6_22 + 0 L_6_23
   + 0 L_6_24 + 0 L_6_26 + 0 L_6_27 + 0 L_7_13 + 0 L_7_14 + 0 L_7_30
   + 0 L_8_16 + 0 L_8_17 + 0 L_8_18 + 0 L_8_19 + 0 L_8_20 + 0 L_8_21
   + 0 L_8_22 + 0 L_8_23 + 0 L_8_26 + 0 L_9_24 + 0 L_9_27 + 0 L_10_30
   + 0 L_11_15 + 0 L_11_25 + 0 L_11_28 + 0 L_11_30 + 0 L_12_25 + 0 L_12_28
   + 0 L_12_30 + 0 L_13_17 + 0 L_13_18 + 0 L_13_19 + 0 L_13_20 + 0 L_13_21
   + 0 L_13_22 + 0 L_13_23 + 0 L_13_26 + 0 L_14_24 + 0 L_14_27 + 0 L_15_21
   + 0 L_15_24 + 0 L_15_27 + 0 L_16_25 + 0 L_16_28 + 0 L_16_30 + 0 L_17_25
   + 0 L_17_28 + 0 L_17_30 + 0 L_18_30 + 0 L_19_30 + 0 L_20_25 + 0 L_20_28
   + 0 L_20_30 + 0 L_21_25 + 0 L_21_28 + 0 L_21_30 + 0 L_22_30 + 0 L_23_30
   + 0 L_24_28 + 0 L_24_30 + 0 L_26_30 + 0 HAIRPIN_1_6 + 0 HAIRPIN_1_8
   + 0 HAIRPIN_1_13 + 0 HAIRPIN_1_30 + 0 HAIRPIN_2_6 + 0 HAIRPIN_2_8
   + 0 HAIRPIN_2_13 + 0 HAIRPIN_2_30 + 0 HAIRPIN_3_7 + 0 HAIRPIN_3_11
   + 0 HAIRPIN_3_12 + 0 HAIRPIN_3_16 + 0 HAIRPIN_3_17 + 0 HAIRPIN_3_20
   + 0 HAIRPIN_3_21 + 0 HAIRPIN_3_24 + 0 HAIRPIN_3_27 + 0 HAIRPIN_4_11
   + 0 HAIRPIN_4_12 + 0 HAIRPIN_4_16 + 0 HAIRPIN_4_17 + 0 HAIRPIN_4_20
   + 0 HAIRPIN_4_21 + 0 HAIRPIN_4_24 + 0 HAIRPIN_4_27 + 0 HAIRPIN_5_13
   + 0 HAIRPIN_5_30 + 0 HAIRPIN_6_10 + 0 HAIRPIN_6_11 + 0 HAIRPIN_6_12
   + 0 HAIRPIN_6_16 + 0 HAIRPIN_6_17 + 0 HAIRPIN_6_18 + 0 HAIRPIN_6_19
   + 0 HAIRPIN_6_20 + 0 HAIRPIN_6_21 + 0 HAIRPIN_6_22 + 0 HAIRPIN_6_23
   + 0 HAIRPIN_6_24 + 0 HAIRPIN_6_26 + 0 HAIRPIN_6_27 + 0 HAIRPIN_6_29
   + 0 HAIRPIN_7_13 + 0 HAIRPIN_7_14 + 0 HAIRPIN_7_15 + 0 HAIRPIN_7_25
   + 0 HAIRPIN_7_28 + 0 HAIRPIN_7_30 + 0 HAIRPIN_8_12 + 0 HAIRPIN_8_16
   + 0 HAIRPIN_8_17 + 0 HAIRPIN_8_18 + 0 HAIRPIN_8_19 + 0 HAIRPIN_8_20
   + 0 HAIRPIN_8_21 + 0 HAIRPIN_8_22 + 0 HAIRPIN_8_23 + 0 HAIRPIN_8_24
   + 0 HAIRPIN_8_26 + 0 HAIRPIN_8_27 + 0 HAIRPIN_8_29 + 0 HAIRPIN_9_16
   + 0 HAIRPIN_9_17 + 0 HAIRPIN_9_20 + 0 HAIRPIN_9_21 + 0 HAIRPIN_9_24
   + 0 HAIRPIN_9_27 + 0 HAIRPIN_10_30 + 0 HAIRPIN_11_15 + 0 HAIRPIN_11_25
   + 0 HAIRPIN_11_28 + 0 HAIRPIN_11_30 + 0 HAIRPIN_12_25 + 0 HAIRPIN_12_28
   + 0 HAIRPIN_12_30 + 0 HAIRPIN_13_17 + 0 HAIRPIN_13_18 + 0 HAIRPIN_13_19
   + 0 HAIRPIN_13_20 + 0 HAIRPIN_13_21 + 0 HAIRPIN_13_22 + 0 HAIRPIN_13_23
   + 0 HAIRPIN_13_24 + 0 HAIRPIN_13_26 + 0 HAIRPIN_13_27 + 0 HAIRPIN_13_29
   + 0 HAIRPIN_14_20 + 0 HAIRPIN_14_21 + 0 HAIRPIN_14_24 + 0 HAIRPIN_14_27
   + 0 HAIRPIN_15_20 + 0 HAIRPIN_15_21 + 0 HAIRPIN_15_24 + 0 HAIRPIN_15_27
   + 0 HAIRPIN_16_25 + 0 HAIRPIN_16_28 + 0 HAIRPIN_16_30 + 0 HAIRPIN_17_25
   + 0 HAIRPIN_17_28 + 0 HAIRPIN_17_30 + 0 HAIRPIN_18_30 + 0 HAIRPIN_19_30
   + 0 HAIRPIN_20_25 + 0 HAIRPIN_20_28 + 0 HAIRPIN_20_30 + 0 HAIRPIN_21_25
   + 0 HAIRPIN_21_28 + 0 HAIRPIN_21_30 + 0 HAIRPIN_22_30 + 0 HAIRPIN_23_30
   + 0 HAIRPIN_24_28 + 0 HAIRPIN_24_30 + 0 HAIRPIN_26_30
Subject To
 SP-1: P_1_6 + P_1_8 + P_1_13 + P_1_30 <= 1
 SP-2: P_2_6 + P_2_8 + P_2_13 + P_2_30 <= 1
 SP-3: P_3_7 + P_3_11 + P_3_12 + P_3_16 + P_3_17 + P_3_20 + P_3_21 + P_3_24
   + P_3_27 <= 1
 SP-4: P_4_11 + P_4_12 + P_4_16 + P_4_17 + P_4_20 + P_4_21 + P_4_24
   + P_4_27 <= 1
 SP-5: P_5_13 + P_5_30 <= 1
 SP-6: P_1_6 + P_2_6 + P_6_10 + P_6_11 + P_6_12 + P_6_16 + P_6_17 + P_6_18
   + P_6_19 + P_6_20 + P_6_21 + P_6_22 + P_6_23 + P_6_24 + P_6_26 + P_6_27
   + P_6_29 <= 1
 SP-7: P_3_7 + P_7_13 + P_7_14 + P_7_15 + P_7_25 + P_7_28 + P_7_30 <= 1
 SP-8: P_1_8 + P_2_8 + P_8_12 + P_8_16 + P_8_17 + P_8_18 + P_8_19 + P_8_20
   + P_8_21 + P_8_22 + P_8_23 + P_8_24 + P_8_26 + P_8_27 + P_8_29 <= 1
 SP-9: P_9_16 + P_9_17 + P_9_20 + P_9_21 + P_9_24 + P_9_27 <= 1
 SP-10: P_6_10 + P_10_30 <= 1
 SP-11: P_3_11 + P_4_11 + P_6_11 + P_11_15 + P_11_25 + P_11_28 + P_11_30
   <= 1
 SP-12: P_3_12 + P_4_12 + P_6_12 + P_8_12 + P_12_25 + P_12_28 + P_12_30
   <= 1
 SP-13: P_1_13 + P_2_13 + P_5_13 + P_7_13 + P_13_17 + P_13_18 + P_13_19
   + P_13_20 + P_13_21 + P_13_22 + P_13_23 + P_13_24 + P_13_26 + P_13_27
   + P_13_29 <= 1
 SP-14: P_7_14 + P_14_20 + P_14_21 + P_14_24 + P_14_27 <= 1
 SP-15: P_7_15 + P_11_15 + P_15_20 + P_15_21 + P_15_24 + P_15_27 <= 1
 SP-16: P_3_16 + P_4_16 + P_6_16 + P_8_16 + P_9_16 + P_16_25 + P_16_28
   + P_16_30 <= 1
 SP-17: P_3_17 + P_4_17 + P_6_17 + P_8_17 + P_9_17 + P_13_17 + P_17_25
   + P_17_28 + P_17_30 <= 1
 SP-18: P_6_18 + P_8_18 + P_13_18 + P_18_30 <= 1
 SP-19: P_6_19 + P_8_19 + P_13_19 + P_19_30 <= 1
 SP-20: P_3_20 + P_4_20 + P_6_20 + P_8_20 + P_9_20 + P_13_20 + P_14_20
   + P_15_20 + P_20_25 + P_20_28 + P_20_30 <= 1
 SP-21: P_3_21 + P_4_21 + P_6_21 + P_8_21 + P_9_21 + P_13_21 + P_14_21
   + P_15_21 + P_21_25 + P_21_28 + P_21_30 <= 1
 SP-22: P_6_22 + P_8_22 + P_13_22 + P_22_30 <= 1
 SP-23: P_6_23 + P_8_23 + P_13_23 + P_23_30 <= 1
 SP-24: P_3_24 + P_4_24 + P_6_24 + P_8_24 + P_9_24 + P_13_24 + P_14_24
   + P_15_24 + P_24_28 + P_24_30 <= 1
 SP-25: P_7_25 + P_11_25 + P_12_25 + P_16_25 + P_17_25 + P_20_25 + P_21_25
   <= 1
 SP-26: P_6_26 + P_8_26 + P_13_26 + P_26_30 <= 1
 SP-27: P_3_27 + P_4_27 + P_6_27 + P_8_27 + P_9_27 + P_13_27 + P_14_27
   + P_15_27 <= 1
 SP-28: P_7_28 + P_11_28 + P_12_28 + P_16_28 + P_17_28 + P_20_28 + P_21_28
   + P_24_28 <= 1
 SP-29: P_6_29 + P_8_29 + P_13_29 <= 1
 SP-30: P_1_30 + P_2_30 + P_5_30 + P_7_30 + P_10_30 + P_11_30 + P_12_30
   + P_16_30 + P_17_30 + P_18_30 + P_19_30 + P_20_30 + P_21_30 + P_22_30
   + P_23_30 + P_24_30 + P_26_30 <= 1
 NC-1-6-2-8: P_1_6 + P_2_8 <= 1
 NC-1-6-2-13: P_1_6 + P_2_13 <= 1
 NC-1-6-2-30: P_1_6 + P_2_30 <= 1
 NC-1-6-3-7: P_1_6 + P_3_7 <= 1
 NC-1-6-3-11: P_1_6 + P_3_11 <= 1
 NC-1-6-3-12: P_1_6 + P_3_12 <= 1
 NC-1-6-3-16: P_1_6 + P_3_16 <= 1
 NC-1-6-3-17: P_1_6 + P_3_17 <= 1
 NC-1-6-3-20: P_1_6 + P_3_20 <= 1
 NC-1-6-3-21: P_1_6 + P_3_21 <= 1
 NC-1-6-3-24: P_1_6 + P_3_24 <= 1
 NC-1-6-3-27: P_1_6 + P_3_27 <= 1
 NC-1-6-4-11: P_1_6 + P_4_11 <= 1
 NC-1-6-4-12: P_1_6 + P_4_12 <= 1
 NC-1-6-4-16: P_1_6 + P_4_16 <= 1
 NC-1-6-4-17: P_1_6 + P_4_17 <= 1
 NC-1-6-4-20: P_1_6 + P_4_20 <= 1
 NC-1-6-4-21: P_1_6 + P_4_21 <= 1
 NC-1-6-4-24: P_1_6 + P_4_24 <= 1
 NC-1-6-4-27: P_1_6 + P_4_27 <= 1
 NC-1-6-5-13: P_1_6 + P_5_13 <= 1
 NC-1-6-5-30: P_1_6 + P_5_30 <= 1
 NC-1-8-2-13: P_1_8 + P_2_13 <= 1
 NC-1-8-2-30: P_1_8 + P_2_30 <= 1
 NC-1-8-3-11: P_1_8 + P_3_11 <= 1
 NC-1-8-3-12: P_1_8 + P_3_12 <= 1
 NC-1-8-3-16: P_1_8 + P_3_16 <= 1
 NC-1-8-3-17: P_1_8 + P_3_17 <= 1
 NC-1-8-3-20: P_1_8 + P_3_20 <= 1
 NC-1-8-3-21: P_1_8 + P_3_21 <= 1
 NC-1-8-3-24: P_1_8 + P_3_24 <= 1
 NC-1-8-3-27: P_1_8 + P_3_27 <= 1
 NC-1-8-4-11: P_1_8 + P_4_11 <= 1
 NC-1-8-4-12: P_1_8 + P_4_12 <= 1
 NC-1-8-4-16: P_1_8 + P_4_16 <= 1
 NC-1-8-4-17: P_1_8 + P_4_17 <= 1
 NC-1-8-4-20: P_1_8 + P_4_20 <= 1
 NC-1-8-4-21: P_1_8 + P_4_21 <= 1
 NC-1-8-4-24: P_1_8 + P_4_24 <= 1
 NC-1-8-4-27: P_1_8 + P_4_27 <= 1
 NC-1-8-5-13: P_1_8 + P_5_13 <= 1
 NC-1-8-5-30: P_1_8 + P_5_30 <= 1
 NC-1-8-6-10: P_1_8 + P_6_10 <= 1
 NC-1-8-6-11: P_1_8 + P_6_11 <= 1
 NC-1-8-6-12: P_1_8 + P_6_12 <= 1
 NC-1-8-6-16: P_1_8 + P_6_16 <= 1
 NC-1-8-6-17: P_1_8 + P_6_17 <= 1
 NC-1-8-6-18: P_1_8 + P_6_18 <= 1
 NC-1-8-6-19: P_1_8 + P_6_19 <= 1
 NC-1-8-6-20: P_1_8 + P_6_20 <= 1
 NC-1-8-6-21: P_1_8 + P_6_21 <= 1
 NC-1-8-6-22: P_1_8 + P_6_22 <= 1
 NC-1-8-6-23: P_1_8 + P_6_23 <= 1
 NC-1-8-6-24: P_1_8 + P_6_24 <= 1
 NC-1-8-6-26: P_1_8 + P_6_26 <= 1
 NC-1-8-6-27: P_1_8 + P_6_27 <= 1
 NC-1-8-6-29: P_1_8 + P_6_29 <= 1
 NC-1-8-7-13: P_1_8 + P_7_13 <= 1
 NC-1-8-7-14: P_1_8 + P_7_14 <= 1
 NC-1-8-7-15: P_1_8 + P_7_15 <= 1
 NC-1-8-7-25: P_1_8 + P_7_25 <= 1
 NC-1-8-7-28: P_1_8 + P_7_28 <= 1
 NC-1-8-7-30: P_1_8 + P_7_30 <= 1
 NC-1-13-2-30: P_1_13 + P_2_30 <= 1
 NC-1-13-3-16: P_1_13 + P_3_16 <= 1
 NC-1-13-3-17: P_1_13 + P_3_17 <= 1
 NC-1-13-3-20: P_1_13 + P_3_20 <= 1
 NC-1-13-3-21: P_1_13 + P_3_21 <= 1
 NC-1-13-3-24: P_1_13 + P_3_24 <= 1
 NC-1-13-3-27: P_1_13 + P_3_27 <= 1
 NC-1-13-4-16: P_1_13 + P_4_16 <= 1
 NC-1-13-4-17: P_1_13 + P_4_17 <= 1
 NC-1-13-4-20: P_1_13 + P_4_20 <= 1
 NC-1-13-4-21: P_1_13 + P_4_21 <= 1
 NC-1-13-4-24: P_1_13 + P_4_24 <= 1
 NC-1-13-4-27: P_1_13 + P_4_27 <= 1
 NC-1-13-5-30: P_1_13 + P_5_30 <= 1
 NC-1-13-6-16: P_1_13 + P_6_16 <= 1
 NC-1-13-6-17: P_1_13 + P_6_17 <= 1
 NC-1-13-6-18: P_1_13 + P_6_18 <= 1
 NC-1-13-6-19: P_1_13 + P_6_19 <= 1
 NC-1-13-6-20: P_1_13 + P_6_20 <= 1
 NC-1-13-6-21: P_1_13 + P_6_21 <= 1
 NC-1-13-6-22: P_1_13 + P_6_22 <= 1
 NC-1-13-6-23: P_1_13 + P_6_23 <= 1
 NC-1-13-6-24: P_1_13 + P_6_24 <= 1
 NC-1-13-6-26: P_1_13 + P_6_26 <= 1
 NC-1-13-6-27: P_1_13 + P_6_27 <= 1
 NC-1-13-6-29: P_1_13 + P_6_29 <= 1
 NC-1-13-7-14: P_1_13 + P_7_14 <= 1
 NC-1-13-7-15: P_1_13 + P_7_15 <= 1
 NC-1-13-7-25: P_1_13 + P_7_25 <= 1
 NC-1-13-7-28: P_1_13 + P_7_28 <= 1
 NC-1-13-7-30: P_1_13 + P_7_30 <= 1
 NC-1-13-8-16: P_1_13 + P_8_16 <= 1
 NC-1-13-8-17: P_1_13 + P_8_17 <= 1
 NC-1-13-8-18: P_1_13 + P_8_18 <= 1
 NC-1-13-8-19: P_1_13 + P_8_19 <= 1
 NC-1-13-8-20: P_1_13 + P_8_20 <= 1
 NC-1-13-8-21: P_1_13 + P_8_21 <= 1
 NC-1-13-8-22: P_1_13 + P_8_22 <= 1
 NC-1-13-8-23: P_1_13 + P_8_23 <= 1
 NC-1-13-8-24: P_1_13 + P_8_24 <= 1
 NC-1-13-8-26: P_1_13 + P_8_26 <= 1
 NC-1-13-8-27: P_1_13 + P_8_27 <= 1
 NC-1-13-8-29: P_1_13 + P_8_29 <= 1
 NC-1-13-9-16: P_1_13 + P_9_16 <= 1
 NC-1-13-9-17: P_1_13 + P_9_17 <= 1
 NC-1-13-9-20: P_1_13 + P_9_20 <= 1
 NC-1-13-9-21: P_1_13 + P_9_21 <= 1
 NC-1-13-9-24: P_1_13 + P_9_24 <= 1
 NC-1-13-9-27: P_1_13 + P_9_27 <= 1
 NC-1-13-10-30: P_1_13 + P_10_30 <= 1
 NC-1-13-11-15: P_1_13 + P_11_15 <= 1
 NC-1-13-11-25: P_1_13 + P_11_25 <= 1
 NC-1-13-11-28: P_1_13 + P_11_28 <= 1
 NC-1-13-11-30: P_1_13 + P_11_30 <= 1
 NC-1-13-12-25: P_1_13 + P_12_25 <= 1
 NC-1-13-12-28: P_1_13 + P_12_28 <= 1
 NC-1-13-12-30: P_1_13 + P_12_30 <= 1
 NC-2-6-3-7: P_2_6 + P_3_7 <= 1
 NC-2-6-3-11: P_2_6 + P_3_11 <= 1
 NC-2-6-3-12: P_2_6 + P_3_12 <= 1
 NC-2-6-3-16: P_2_6 + P_3_16 <= 1
 NC-2-6-3-17: P_2_6 + P_3_17 <= 1
 NC-2-6-3-20: P_2_6 + P_3_20 <= 1
 NC-2-6-3-21: P_2_6 + P_3_21 <= 1
 NC-2-6-3-24: P_2_6 + P_3_24 <= 1
 NC-2-6-3-27: P_2_6 + P_3_27 <= 1
 NC-2-6-4-11: P_2_6 + P_4_11 <= 1
 NC-2-6-4-12: P_2_6 + P_4_12 <= 1
 NC-2-6-4-16: P_2_6 + P_4_16 <= 1
 NC-2-6-4-17: P_2_6 + P_4_17 <= 1
 NC-2-6-4-20: P_2_6 + P_4_20 <= 1
 NC-2-6-4-21: P_2_6 + P_4_21 <= 1
 NC-2-6-4-24: P_2_6 + P_4_24 <= 1
 NC-2-6-4-27: P_2_6 + P_4_27 <= 1
 NC-2-6-5-13: P_2_6 + P_5_13 <= 1
 NC-2-6-5-30: P_2_6 + P_5_30 <= 1
 NC-2-8-3-11: P_2_8 + P_3_11 <= 1
 NC-2-8-3-12: P_2_8 + P_3_12 <= 1
 NC-2-8-3-16: P_2_8 + P_3_16 <= 1
 NC-2-8-3-17: P_2_8 + P_3_17 <= 1
 NC-2-8-3-20: P_2_8 + P_3_20 <= 1
 NC-2-8-3-21: P_2_8 + P_3_21 <= 1
 NC-2-8-3-24: P_2_8 + P_3_24 <= 1
 NC-2-8-3-27: P_2_8 + P_3_27 <= 1
 NC-2-8-4-11: P_2_8 + P_4_11 <= 1
 NC-2-8-4-12: P_2_8 + P_4_12 <= 1
 NC-2-8-4-16: P_2_8 + P_4_16 <= 1
 NC-2-8-4-17: P_2_8 + P_4_17 <= 1
 NC-2-8-4-20: P_2_8 + P_4_20 <= 1
 NC-2-8-4-21: P_2_8 + P_4_21 <= 1
 NC-2-8-4-24: P_2_8 + P_4_24 <= 1
 NC-2-8-4-27: P_2_8 + P_4_27 <= 1
 NC-2-8-5-13: P_2_8 + P_5_13 <= 1
 NC-2-8-5-30: P_2_8 + P_5_30 <= 1
 NC-2-8-6-10: P_2_8 + P_6_10 <= 1
 NC-2-8-6-11: P_2_8 + P_6_11 <= 1
 NC-2-8-6-12: P_2_8 + P_6_12 <= 1
 NC-2-8-6-16: P_2_8 + P_6_16 <= 1
 NC-2-8-6-17: P_2_8 + P_6_17 <= 1
 NC-2-8-6-18: P_2_8 + P_6_18 <= 1
 NC-2-8-6-19: P_2_8 + P_6_19 <= 1
 NC-2-8-6-20: P_2_8 + P_6_20 <= 1
 NC-2-8-6-21: P_2_8 + P_6_21 <= 1
 NC-2-8-6-22: P_2_8 + P_6_22 <= 1
 NC-2-8-6-23: P_2_8 + P_6_23 <= 1
 NC-2-8-6-24: P_2_8 + P_6_24 <= 1
 NC-2-8-6-26: P_2_8 + P_6_26 <= 1
 NC-2-8-6-27: P_2_8 + P_6_27 <= 1
 NC-2-8-6-29: P_2_8 + P_6_29 <= 1
 NC-2-8-7-13: P_2_8 + P_7_13 <= 1
 NC-2-8-7-14: P_2_8 + P_7_14 <= 1
 NC-2-8-7-15: P_2_8 + P_7_15 <= 1
 NC-2-8-7-25: P_2_8 + P_7_25 <= 1
 NC-2-8-7-28: P_2_8 + P_7_28 <= 1
 NC-2-8-7-30: P_2_8 + P_7_30 <= 1
 NC-2-13-3-16: P_2_13 + P_3_16 <= 1
 NC-2-13-3-17: P_2_13 + P_3_17 <= 1
 NC-2-13-3-20: P_2_13 + P_3_20 <= 1
 NC-2-13-3-21: P_2_13 + P_3_21 <= 1
 NC-2-13-3-24: P_2_13 + P_3_24 <= 1
 NC-2-13-3-27: P_2_13 + P_3_27 <= 1
 NC-2-13-4-16: P_2_13 + P_4_16 <= 1
 NC-2-13-4-17: P_2_13 + P_4_17 <= 1
 NC-2-13-4-20: P_2_13 + P_4_20 <= 1
 NC-2-13-4-21: P_2_13 + P_4_21 <= 1
 NC-2-13-4-24: P_2_13 + P_4_24 <= 1
 NC-2-13-4-27: P_2_13 + P_4_27 <= 1
 NC-2-13-5-30: P_2_13 + P_5_30 <= 1
 NC-2-13-6-16: P_2_13 + P_6_16 <= 1
 NC-2-13-6-17: P_2_13 + P_6_17 <= 1
 NC-2-13-6-18: P_2_13 + P_6_18 <= 1
 NC-2-13-6-19: P_2_13 + P_6_19 <= 1
 NC-2-13-6-20: P_2_13 + P_6_20 <= 1
 NC-2-13-6-21: P_2_13 + P_6_21 <= 1
 NC-2-13-6-22: P_2_13 + P_6_22 <= 1
 NC-2-13-6-23: P_2_13 + P_6_23 <= 1
 NC-2-13-6-24: P_2_13 + P_6_24 <= 1
 NC-2-13-6-26: P_2_13 + P_6_26 <= 1
 NC-2-13-6-27: P_2_13 + P_6_27 <= 1
 NC-2-13-6-29: P_2_13 + P_6_29 <= 1
 NC-2-13-7-14: P_2_13 + P_7_14 <= 1
 NC-2-13-7-15: P_2_13 + P_7_15 <= 1
 NC-2-13-7-25: P_2_13 + P_7_25 <= 1
 NC-2-13-7-28: P_2_13 + P_7_28 <= 1
 NC-2-13-7-30: P_2_13 + P_7_30 <= 1
 NC-2-13-8-16: P_2_13 + P_8_16 <= 1
 NC-2-13-8-17: P_2_13 + P_8_17 <= 1
 NC-2-13-8-18: P_2_13 + P_8_18 <= 1
 NC-2-13-8-19: P_2_13 + P_8_19 <= 1
 NC-2-13-8-20: P_2_13 + P_8_20 <= 1
 NC-2-13-8-21: P_2_13 + P_8_21 <= 1
 NC-2-13-8-22: P_2_13 + P_8_22 <= 1
 NC-2-13-8-23: P_2_13 + P_8_23 <= 1
 NC-2-13-8-24: P_2_13 + P_8_24 <= 1
 NC-2-13-8-26: P_2_13 + P_8_26 <= 1
 NC-2-13-8-27: P_2_13 + P_8_27 <= 1
 NC-2-13-8-29: P_2_13 + P_8_29 <= 1
 NC-2-13-9-16: P_2_13 + P_9_16 <= 1
 NC-2-13-9-17: P_2_13 + P_9_17 <= 1
 NC-2-13-9-20: P_2_13 + P_9_20 <= 1
 NC-2-13-9-21: P_2_13 + P_9_21 <= 1
 NC-2-13-9-24: P_2_13 + P_9_24 <= 1
 NC-2-13-9-27: P_2_13 + P_9_27 <= 1
 NC-2-13-10-30: P_2_13 + P_10_30 <= 1
 NC-2-13-11-15: P_2_13 + P_11_15 <= 1
 NC-2-13-11-25: P_2_13 + P_11_25 <= 1
 NC-2-13-11-28: P_2_13 + P_11_28 <= 1
 NC-2-13-11-30: P_2_13 + P_11_30 <= 1
 NC-2-13-12-25: P_2_13 + P_12_25 <= 1
 NC-2-13-12-28: P_2_13 + P_12_28 <= 1
 NC-2-13-12-30: P_2_13 + P_12_30 <= 1
 NC-3-7-4-11: P_3_7 + P_4_11 <= 1
 NC-3-7-4-12: P_3_7 + P_4_12 <= 1
 NC-3-7-4-16: P_3_7 + P_4_16 <= 1
 NC-3-7-4-17: P_3_7 + P_4_17 <= 1
 NC-3-7-4-20: P_3_7 + P_4_20 <= 1
 NC-3-7-4-21: P_3_7 + P_4_21 <= 1
 NC-3-7-4-24: P_3_7 + P_4_24 <= 1
 NC-3-7-4-27: P_3_7 + P_4_27 <= 1
 NC-3-7-5-13: P_3_7 + P_5_13 <= 1
 NC-3-7-5-30: P_3_7 + P_5_30 <= 1
 NC-3-7-6-10: P_3_7 + P_6_10 <= 1
 NC-3-7-6-11: P_3_7 + P_6_11 <= 1
 NC-3-7-6-12: P_3_7 + P_6_12 <= 1
 NC-3-7-6-16: P_3_7 + P_6_16 <= 1
 NC-3-7-6-17: P_3_7 + P_6_17 <= 1
 NC-3-7-6-18: P_3_7 + P_6_18 <= 1
 NC-3-7-6-19: P_3_7 + P_6_19 <= 1
 NC-3-7-6-20: P_3_7 + P_6_20 <= 1
 NC-3-7-6-21: P_3_7 + P_6_21 <= 1
 NC-3-7-6-22: P_3_7 + P_6_22 <= 1
 NC-3-7-6-23: P_3_7 + P_6_23 <= 1
 NC-3-7-6-24: P_3_7 + P_6_24 <= 1
 NC-3-7-6-26: P_3_7 + P_6_26 <= 1
 NC-3-7-6-27: P_3_7 + P_6_27 <= 1
 NC-3-7-6-29: P_3_7 + P_6_29 <= 1
 NC-3-11-4-12: P_3_11 + P_4_12 <= 1
 NC-3-11-4-16: P_3_11 + P_4_16 <= 1
 NC-3-11-4-17: P_3_11 + P_4_17 <= 1
 NC-3-11-4-20: P_3_11 + P_4_20 <= 1
 NC-3-11-4-21: P_3_11 + P_4_21 <= 1
 NC-3-11-4-24: P_3_11 + P_4_24 <= 1
 NC-3-11-4-27: P_3_11 + P_4_27 <= 1
 NC-3-11-5-13: P_3_11 + P_5_13 <= 1
 NC-3-11-5-30: P_3_11 + P_5_30 <= 1
 NC-3-11-6-12: P_3_11 + P_6_12 <= 1
 NC-3-11-6-16: P_3_11 + P_6_16 <= 1
 NC-3-11-6-17: P_3_11 + P_6_17 <= 1
 NC-3-11-6-18: P_3_11 + P_6_18 <= 1
 NC-3-11-6-19: P_3_11 + P_6_19 <= 1
 NC-3-11-6-20: P_3_11 + P_6_20 <= 1
 NC-3-11-6-21: P_3_11 + P_6_21 <= 1
 NC-3-11-6-22: P_3_11 + P_6_22 <= 1
 NC-3-11-6-23: P_3_11 + P_6_23 <= 1
 NC-3-11-6-24: P_3_11 + P_6_24 <= 1
 NC-3-11-6-26: P_3_11 + P_6_26 <= 1
 NC-3-11-6-27: P_3_11 + P_6_27 <= 1
 NC-3-11-6-29: P_3_11 + P_6_29 <= 1
 NC-3-11-7-13: P_3_11 + P_7_13 <= 1
 NC-3-11-7-14: P_3_11 + P_7_14 <= 1
 NC-3-11-7-15: P_3_11 + P_7_15 <= 1
 NC-3-11-7-25: P_3_11 + P_7_25 <= 1
 NC-3-11-7-28: P_3_11 + P_7_28 <= 1
 NC-3-11-7-30: P_3_11 + P_7_30 <= 1
 NC-3-11-8-12: P_3_11 + P_8_12 <= 1
 NC-3-11-8-16: P_3_11 + P_8_16 <= 1
 NC-3-11-8-17: P_3_11 + P_8_17 <= 1
 NC-3-11-8-18: P_3_11 + P_8_18 <= 1
 NC-3-11-8-19: P_3_11 + P_8_19 <= 1
 NC-3-11-8-20: P_3_11 + P_8_20 <= 1
 NC-3-11-8-21: P_3_11 + P_8_21 <= 1
 NC-3-11-8-22: P_3_11 + P_8_22 <= 1
 NC-3-11-8-23: P_3_11 + P_8_23 <= 1
 NC-3-11-8-24: P_3_11 + P_8_24 <= 1
 NC-3-11-8-26: P_3_11 + P_8_26 <= 1
 NC-3-11-8-27: P_3_11 + P_8_27 <= 1
 NC-3-11-8-29: P_3_11 + P_8_29 <= 1
 NC-3-11-9-16: P_3_11 + P_9_16 <= 1
 NC-3-11-9-17: P_3_11 + P_9_17 <= 1
 NC-3-11-9-20: P_3_11 + P_9_20 <= 1
 NC-3-11-9-21: P_3_11 + P_9_21 <= 1
 NC-3-11-9-24: P_3_11 + P_9_24 <= 1
 NC-3-11-9-27: P_3_11 + P_9_27 <= 1
 NC-3-11-10-30: P_3_11 + P_10_30 <= 1
 NC-3-12-4-16: P_3_12 + P_4_16 <= 1
 NC-3-12-4-17: P_3_12 + P_4_17 <= 1
 NC-3-12-4-20: P_3_12 + P_4_20 <= 1
 NC-3-12-4-21: P_3_12 + P_4_21 <= 1
 NC-3-12-4-24: P_3_12 + P_4_24 <= 1
 NC-3-12-4-27: P_3_12 + P_4_27 <= 1
 NC-3-12-5-13: P_3_12 + P_5_13 <= 1
 NC-3-12-5-30: P_3_12 + P_5_30 <= 1
 NC-3-12-6-16: P_3_12 + P_6_16 <= 1
 NC-3-12-6-17: P_3_12 + P_6_17 <= 1
 NC-3-12-6-18: P_3_12 + P_6_18 <= 1
 NC-3-12-6-19: P_3_12 + P_6_19 <= 1
 NC-3-12-6-20: P_3_12 + P_6_20 <= 1
 NC-3-12-6-21: P_3_12 + P_6_21 <= 1
 NC-3-12-6-22: P_3_12 + P_6_22 <= 1
 NC-3-12-6-23: P_3_12 + P_6_23 <= 1
 NC-3-12-6-24: P_3_12 + P_6_24 <= 1
 NC-3-12-6-26: P_3_12 + P_6_26 <= 1
 NC-3-12-6-27: P_3_12 + P_6_27 <= 1
 NC-3-12-6-29: P_3_12 + P_6_29 <= 1
 NC-3-12-7-13: P_3_12 + P_7_13 <= 1
 NC-3-12-7-14: P_3_12 + P_7_14 <= 1
 NC-3-12-7-15: P_3_12 + P_7_15 <= 1
 NC-3-12-7-25: P_3_12 + P_7_25 <= 1
 NC-3-12-7-28: P_3_12 + P_7_28 <= 1
 NC-3-12-7-30: P_3_12 + P_7_30 <= 1
 NC-3-12-8-16: P_3_12 + P_8_16 <= 1
 NC-3-12-8-17: P_3_12 + P_8_17 <= 1
 NC-3-12-8-18: P_3_12 + P_8_18 <= 1
 NC-3-12-8-19: P_3_12 + P_8_19 <= 1
 NC-3-12-8-20: P_3_12 + P_8_20 <= 1
 NC-3-12-8-21: P_3_12 + P_8_21 <= 1
 NC-3-12-8-22: P_3_12 + P_8_22 <= 1
 NC-3-12-8-23: P_3_12 + P_8_23 <= 1
 NC-3-12-8-24: P_3_12 + P_8_24 <= 1
 NC-3-12-8-26: P_3_12 + P_8_26 <= 1
 NC-3-12-8-27: P_3_12 + P_8_27 <= 1
 NC-3-12-8-29: P_3_12 + P_8_29 <= 1
 NC-3-12-9-16: P_3_12 + P_9_16 <= 1
 NC-3-12-9-17: P_3_12 + P_9_17 <= 1
 NC-3-12-9-20: P_3_12 + P_9_20 <= 1
 NC-3-12-9-21: P_3_12 + P_9_21 <= 1
 NC-3-12-9-24: P_3_12 + P_9_24 <= 1
 NC-3-12-9-27: P_3_12 + P_9_27 <= 1
 NC-3-12-10-30: P_3_12 + P_10_30 <= 1
 NC-3-12-11-15: P_3_12 + P_11_15 <= 1
 NC-3-12-11-25: P_3_12 + P_11_25 <= 1
 NC-3-12-11-28: P_3_12 + P_11_28 <= 1
 NC-3-12-11-30: P_3_12 + P_11_30 <= 1
 NC-3-16-4-17: P_3_16 + P_4_17 <= 1
 NC-3-16-4-20: P_3_16 + P_4_20 <= 1
 NC-3-16-4-21: P_3_16 + P_4_21 <= 1
 NC-3-16-4-24: P_3_16 + P_4_24 <= 1
 NC-3-16-4-27: P_3_16 + P_4_27 <= 1
 NC-3-16-5-30: P_3_16 + P_5_30 <= 1
 NC-3-16-6-17: P_3_16 + P_6_17 <= 1
 NC-3-16-6-18: P_3_16 + P_6_18 <= 1
 NC-3-16-6-19: P_3_16 + P_6_19 <= 1
 NC-3-16-6-20: P_3_16 + P_6_20 <= 1
 NC-3-16-6-21: P_3_16 + P_6_21 <= 1
 NC-3-16-6-22: P_3_16 + P_6_22 <= 1
 NC-3-16-6-23: P_3_16 + P_6_23 <= 1
 NC-3-16-6-24: P_3_16 + P_6_24 <= 1
 NC-3-16-6-26: P_3_16 + P_6_26 <= 1
 NC-3-16-6-27: P_3_16 + P_6_27 <= 1
 NC-3-16-6-29: P_3_16 + P_6_29 <= 1
 NC-3-16-7-25: P_3_16 + P_7_25 <= 1
 NC-3-16-7-28: P_3_16 + P_7_28 <= 1
 NC-3-16-7-30: P_3_16 + P_7_30 <= 1
 NC-3-16-8-17: P_3_16 + P_8_17 <= 1
 NC-3-16-8-18: P_3_16 + P_8_18 <= 1
 NC-3-16-8-19: P_3_16 + P_8_19 <= 1
 NC-3-16-8-20: P_3_16 + P_8_20 <= 1
 NC-3-16-8-21: P_3_16 + P_8_21 <= 1
 NC-3-16-8-22: P_3_16 + P_8_22 <= 1
 NC-3-16-8-23: P_3_16 + P_8_23 <= 1
 NC-3-16-8-24: P_3_16 + P_8_24 <= 1
 NC-3-16-8-26: P_3_16 + P_8_26 <= 1
 NC-3-16-8-27: P_3_16 + P_8_27 <= 1
 NC-3-16-8-29: P_3_16 + P_8_29 <= 1
 NC-3-16-9-17: P_3_16 + P_9_17 <= 1
 NC-3-16-9-20: P_3_16 + P_9_20 <= 1
 NC-3-16-9-21: P_3_16 + P_9_21 <= 1
 NC-3-16-9-24: P_3_16 + P_9_24 <= 1
 NC-3-16-9-27: P_3_16 + P_9_27 <= 1
 NC-3-16-10-30: P_3_16 + P_10_30 <= 1
 NC-3-16-11-25: P_3_16 + P_11_25 <= 1
 NC-3-16-11-28: P_3_16 + P_11_28 <= 1
 NC-3-16-11-30: P_3_16 + P_11_30 <= 1
 NC-3-16-12-25: P_3_16 + P_12_25 <= 1
 NC-3-16-12-28: P_3_16 + P_12_28 <= 1
 NC-3-16-12-30: P_3_16 + P_12_30 <= 1
 NC-3-16-13-17: P_3_16 + P_13_17 <= 1
 NC-3-16-13-18: P_3_16 + P_13_18 <= 1
 NC-3-16-13-19: P_3_16 + P_13_19 <= 1
 NC-3-16-13-20: P_3_16 + P_13_20 <= 1
 NC-3-16-13-21: P_3_16 + P_13_21 <= 1
 NC-3-16-13-22: P_3_16 + P_13_22 <= 1
 NC-3-16-13-23: P_3_16 + P_13_23 <= 1
 NC-3-16-13-24: P_3_16 + P_13_24 <= 1
 NC-3-16-13-26: P_3_16 + P_13_26 <= 1
 NC-3-16-13-27: P_3_16 + P_13_27 <= 1
 NC-3-16-13-29: P_3_16 + P_13_29 <= 1
 NC-3-16-14-20: P_3_16 + P_14_20 <= 1
 NC-3-16-14-21: P_3_16 + P_14_21 <= 1
 NC-3-16-14-24: P_3_16 + P_14_24 <= 1
 NC-3-16-14-27: P_3_16 + P_14_27 <= 1
 NC-3-16-15-20: P_3_16 + P_15_20 <= 1
 NC-3-16-15-21: P_3_16 + P_15_21 <= 1
 NC-3-16-15-24: P_3_16 + P_15_24 <= 1
 NC-3-16-15-27: P_3_16 + P_15_27 <= 1
 NC-3-17-4-20: P_3_17 + P_4_20 <= 1
 NC-3-17-4-21: P_3_17 + P_4_21 <= 1
 NC-3-17-4-24: P_3_17 + P_4_24 <= 1
 NC-3-17-4-27: P_3_17 + P_4_27 <= 1
 NC-3-17-5-30: P_3_17 + P_5_30 <= 1
 NC-3-17-6-18: P_3_17 + P_6_18 <= 1
 NC-3-17-6-19: P_3_17 + P_6_19 <= 1
 NC-3-17-6-20: P_3_17 + P_6_20 <= 1
 NC-3-17-6-21: P_3_17 + P_6_21 <= 1
 NC-3-17-6-22: P_3_17 + P_6_22 <= 1
 NC-3-17-6-23: P_3_17 + P_6_23 <= 1
 NC-3-17-6-24: P_3_17 + P_6_24 <= 1
 NC-3-17-6-26: P_3_17 + P_6_26 <= 1
 NC-3-17-6-27: P_3_17 + P_6_27 <= 1
 NC-3-17-6-29: P_3_17 + P_6_29 <= 1
 NC-3-17-7-25: P_3_17 + P_7_25 <= 1
 NC-3-17-7-28: P_3_17 + P_7_28 <= 1
 NC-3-17-7-30: P_3_17 + P_7_30 <= 1
 NC-3-17-8-18: P_3_17 + P_8_18 <= 1
 NC-3-17-8-19: P_3_17 + P_8_19 <= 1
 NC-3-17-8-20: P_3_17 + P_8_20 <= 1
 NC-3-17-8-21: P_3_17 + P_8_21 <= 1
 NC-3-17-8-22: P_3_17 + P_8_22 <= 1
 NC-3-17-8-23: P_3_17 + P_8_23 <= 1
 NC-3-17-8-24: P_3_17 + P_8_24 <= 1
 NC-3-17-8-26: P_3_17 + P_8_26 <= 1
 NC-3-17-8-27: P_3_17 + P_8_27 <= 1
 NC-3-17-8-29: P_3_17 + P_8_29 <= 1
 NC-3-17-9-20: P_3_17 + P_9_20 <= 1
 NC-3-17-9-21: P_3_17 + P_9_21 <= 1
 NC-3-17-9-24: P_3_17 + P_9_24 <= 1
 NC-3-17-9-27: P_3_17 + P_9_27 <= 1
 NC-3-17-10-30: P_3_17 + P_10_30 <= 1
 NC-3-17-11-25: P_3_17 + P_11_25 <= 1
 NC-3-17-11-28: P_3_17 + P_11_28 <= 1
 NC-3-17-11-30: P_3_17 + P_11_30 <= 1
 NC-3-17-12-25: P_3_17 + P_12_25 <= 1
 NC-3-17-12-28: P_3_17 + P_12_28 <= 1
 NC-3-17-12-30: P_3_17 + P_12_30 <= 1
 NC-3-17-13-18: P_3_17 + P_13_18 <= 1
 NC-3-17-13-19: P_3_17 + P_13_19 <= 1
 NC-3-17-13-20: P_3_17 + P_13_20 <= 1
 NC-3-17-13-21: P_3_17 + P_13_21 <= 1
 NC-3-17-13-22: P_3_17 + P_13_22 <= 1
 NC-3-17-13-23: P_3_17 + P_13_23 <= 1
 NC-3-17-13-24: P_3_17 + P_13_24 <= 1
 NC-3-17-13-26: P_3_17 + P_13_26 <= 1
 NC-3-17-13-27: P_3_17 + P_13_27 <= 1
 NC-3-17-13-29: P_3_17 + P_13_29 <= 1
 NC-3-17-14-20: P_3_17 + P_14_20 <= 1
 NC-3-17-14-21: P_3_17 + P_14_21 <= 1
 NC-3-17-14-24: P_3_17 + P_14_24 <= 1
 NC-3-17-14-27: P_3_17 + P_14_27 <= 1
 NC-3-17-15-20: P_3_17 + P_15_20 <= 1
 NC-3-17-15-21: P_3_17 + P_15_21 <= 1
 NC-3-17-15-24: P_3_17 + P_15_24 <= 1
 NC-3-17-15-27: P_3_17 + P_15_27 <= 1
 NC-3-17-16-25: P_3_17 + P_16_25 <= 1
 NC-3-17-16-28: P_3_17 + P_16_28 <= 1
 NC-3-17-16-30: P_3_17 + P_16_30 <= 1
 NC-3-20-4-21: P_3_20 + P_4_21 <= 1
 NC-3-20-4-24: P_3_20 + P_4_24 <= 1
 NC-3-20-4-27: P_3_20 + P_4_27 <= 1
 NC-3-20-5-30: P_3_20 + P_5_30 <= 1
 NC-3-20-6-21: P_3_20 + P_6_21 <= 1
 NC-3-20-6-22: P_3_20 + P_6_22 <= 1
 NC-3-20-6-23: P_3_20 + P_6_23 <= 1
 NC-3-20-6-24: P_3_20 + P_6_24 <= 1
 NC-3-20-6-26: P_3_20 + P_6_26 <= 1
 NC-3-20-6-27: P_3_20 + P_6_27 <= 1
 NC-3-20-6-29: P_3_20 + P_6_29 <= 1
 NC-3-20-7-25: P_3_20 + P_7_25 <= 1
 NC-3-20-7-28: P_3_20 + P_7_28 <= 1
 NC-3-20-7-30: P_3_20 + P_7_30 <= 1
 NC-3-20-8-21: P_3_20 + P_8_21 <= 1
 NC-3-20-8-22: P_3_20 + P_8_22 <= 1
 NC-3-20-8-23: P_3_20 + P_8_23 <= 1
 NC-3-20-8-24: P_3_20 + P_8_24 <= 1
 NC-3-20-8-26: P_3_20 + P_8_26 <= 1
 NC-3-20-8-27: P_3_20 + P_8_27 <= 1
 NC-3-20-8-29: P_3_20 + P_8_29 <= 1
 NC-3-20-9-21: P_3_20 + P_9_21 <= 1
 NC-3-20-9-24: P_3_20 + P_9_24 <= 1
 NC-3-20-9-27: P_3_20 + P_9_27 <= 1
 NC-3-20-10-30: P_3_20 + P_10_30 <= 1
 NC-3-20-11-25: P_3_20 + P_11_25 <= 1
 NC-3-20-11-28: P_3_20 + P_11_28 <= 1
 NC-3-20-11-30: P_3_20 + P_11_30 <= 1
 NC-3-20-12-25: P_3_20 + P_12_25 <= 1
 NC-3-20-12-28: P_3_20 + P_12_28 <= 1
 NC-3-20-12-30: P_3_20 + P_12_30 <= 1
 NC-3-20-13-21: P_3_20 + P_13_21 <= 1
 NC-3-20-13-22: P_3_20 + P_13_22 <= 1
 NC-3-20-13-23: P_3_20 + P_13_23 <= 1
 NC-3-20-13-24: P_3_20 + P_13_24 <= 1
 NC-3-20-13-26: P_3_20 + P_13_26 <= 1
 NC-3-20-13-27: P_3_20 + P_13_27 <= 1
 NC-3-20-13-29: P_3_20 + P_13_29 <= 1
 NC-3-20-14-21: P_3_20 + P_14_21 <= 1
 NC-3-20-14-24: P_3_20 + P_14_24 <= 1
 NC-3-20-14-27: P_3_20 + P_14_27 <= 1
 NC-3-20-15-21: P_3_20 + P_15_21 <= 1
 NC-3-20-15-24: P_3_20 + P_15_24 <= 1
 NC-3-20-15-27: P_3_20 + P_15_27 <= 1
 NC-3-20-16-25: P_3_20 + P_16_25 <= 1
 NC-3-20-16-28: P_3_20 + P_16_28 <= 1
 NC-3-20-16-30: P_3_20 + P_16_30 <= 1
 NC-3-20-17-25: P_3_20 + P_17_25 <= 1
 NC-3-20-17-28: P_3_20 + P_17_28 <= 1
 NC-3-20-17-30: P_3_20 + P_17_30 <= 1
 NC-3-20-18-30: P_3_20 + P_18_30 <= 1
 NC-3-20-19-30: P_3_20 + P_19_30 <= 1
 NC-3-21-4-24: P_3_21 + P_4_24 <= 1
 NC-3-21-4-27: P_3_21 + P_4_27 <= 1
 NC-3-21-5-30: P_3_21 + P_5_30 <= 1
 NC-3-21-6-22: P_3_21 + P_6_22 <= 1
 NC-3-21-6-23: P_3_21 + P_6_23 <= 1
 NC-3-21-6-24: P_3_21 + P_6_24 <= 1
 NC-3-21-6-26: P_3_21 + P_6_26 <= 1
 NC-3-21-6-27: P_3_21 + P_6_27 <= 1
 NC-3-21-6-29: P_3_21 + P_6_29 <= 1
 NC-3-21-7-25: P_3_21 + P_7_25 <= 1
 NC-3-21-7-28: P_3_21 + P_7_28 <= 1
 NC-3-21-7-30: P_3_21 + P_7_30 <= 1
 NC-3-21-8-22: P_3_21 + P_8_22 <= 1
 NC-3-21-8-23: P_3_21 + P_8_23 <= 1
 NC-3-21-8-24: P_3_21 + P_8_24 <= 1
 NC-3-21-8-26: P_3_21 + P_8_26 <= 1
 NC-3-21-8-27: P_3_21 + P_8_27 <= 1
 NC-3-21-8-29: P_3_21 + P_8_29 <= 1
 NC-3-21-9-24: P_3_21 + P_9_24 <= 1
 NC-3-21-9-27: P_3_21 + P_9_27 <= 1
 NC-3-21-10-30: P_3_21 + P_10_30 <= 1
 NC-3-21-11-25: P_3_21 + P_11_25 <= 1
 NC-3-21-11-28: P_3_21 + P_11_28 <= 1
 NC-3-21-11-30: P_3_21 + P_11_30 <= 1
 NC-3-21-12-25: P_3_21 + P_12_25 <= 1
 NC-3-21-12-28: P_3_21 + P_12_28 <= 1
 NC-3-21-12-30: P_3_21 + P_12_30 <= 1
 NC-3-21-13-22: P_3_21 + P_13_22 <= 1
 NC-3-21-13-23: P_3_21 + P_13_23 <= 1
 NC-3-21-13-24: P_3_21 + P_13_24 <= 1
 NC-3-21-13-26: P_3_21 + P_13_26 <= 1
 NC-3-21-13-27: P_3_21 + P_13_27 <= 1
 NC-3-21-13-29: P_3_21 + P_13_29 <= 1
 NC-3-21-14-24: P_3_21 + P_14_24 <= 1
 NC-3-21-14-27: P_3_21 + P_14_27 <= 1
 NC-3-21-15-24: P_3_21 + P_15_24 <= 1
 NC-3-21-15-27: P_3_21 + P_15_27 <= 1
 NC-3-21-16-25: P_3_21 + P_16_25 <= 1
 NC-3-21-16-28: P_3_21 + P_16_28 <= 1
 NC-3-21-16-30: P_3_21 + P_16_30 <= 1
 NC-3-21-17-25: P_3_21 + P_17_25 <= 1
 NC-3-21-17-28: P_3_21 + P_17_28 <= 1
 NC-3-21-17-30: P_3_21 + P_17_30 <= 1
 NC-3-21-18-30: P_3_21 + P_18_30 <= 1
 NC-3-21-19-30: P_3_21 + P_19_30 <= 1
 NC-3-21-20-25: P_3_21 + P_20_25 <= 1
 NC-3-21-20-28: P_3_21 + P_20_28 <= 1
 NC-3-21-20-30: P_3_21 + P_20_30 <= 1
 NC-3-24-4-27: P_3_24 + P_4_27 <= 1
 NC-3-24-5-30: P_3_24 + P_5_30 <= 1
 NC-3-24-6-26: P_3_24 + P_6_26 <= 1
 NC-3-24-6-27: P_3_24 + P_6_27 <= 1
 NC-3-24-6-29: P_3_24 + P_6_29 <= 1
 NC-3-24-7-25: P_3_24 + P_7_25 <= 1
 NC-3-24-7-28: P_3_24 + P_7_28 <= 1
 NC-3-24-7-30: P_3_24 + P_7_30 <= 1
 NC-3-24-8-26: P_3_24 + P_8_26 <= 1
 NC-3-24-8-27: P_3_24 + P_8_27 <= 1
 NC-3-24-8-29: P_3_24 + P_8_29 <= 1
 NC-3-24-9-27: P_3_24 + P_9_27 <= 1
 NC-3-24-10-30: P_3_24 + P_10_30 <= 1
 NC-3-24-11-25: P_3_24 + P_11_25 <= 1
 NC-3-24-11-28: P_3_24 + P_11_28 <= 1
 NC-3-24-11-30: P_3_24 + P_11_30 <= 1
 NC-3-24-12-25: P_3_24 + P_12_25 <= 1
 NC-3-24-12-28: P_3_24 + P_12_28 <= 1
 NC-3-24-12-30: P_3_24 + P_12_30 <= 1
 NC-3-24-13-26: P_3_24 + P_13_26 <= 1
 NC-3-24-13-27: P_3_24 + P_13_27 <= 1
 NC-3-24-13-29: P_3_24 + P_13_29 <= 1
 NC-3-24-14-27: P_3_24 + P_14_27 <= 1
 NC-3-24-15-27: P_3_24 + P_15_27 <= 1
 NC-3-24-16-25: P_3_24 + P_16_25 <= 1
 NC-3-24-16-28: P_3_24 + P_16_28 <= 1
 NC-3-24-16-30: P_3_24 + P_16_30 <= 1
 NC-3-24-17-25: P_3_24 + P_17_25 <= 1
 NC-3-24-17-28: P_3_24 + P_17_28 <= 1
 NC-3-24-17-30: P_3_24 + P_17_30 <= 1
 NC-3-24-18-30: P_3_24 + P_18_30 <= 1
 NC-3-24-19-30: P_3_24 + P_19_30 <= 1
 NC-3-24-20-25: P_3_24 + P_20_25 <= 1
 NC-3-24-20-28: P_3_24 + P_20_28 <= 1
 NC-3-24-20-30: P_3_24 + P_20_30 <= 1
 NC-3-24-21-25: P_3_24 + P_21_25 <= 1
 NC-3-24-21-28: P_3_24 + P_21_28 <= 1
 NC-3-24-21-30: P_3_24 + P_21_30 <= 1
 NC-3-24-22-30: P_3_24 + P_22_30 <= 1
 NC-3-24-23-30: P_3_24 + P_23_30 <= 1
 NC-3-27-5-30: P_3_27 + P_5_30 <= 1
 NC-3-27-6-29: P_3_27 + P_6_29 <= 1
 NC-3-27-7-28: P_3_27 + P_7_28 <= 1
 NC-3-27-7-30: P_3_27 + P_7_30 <= 1
 NC-3-27-8-29: P_3_27 + P_8_29 <= 1
 NC-3-27-10-30: P_3_27 + P_10_30 <= 1
 NC-3-27-11-28: P_3_27 + P_11_28 <= 1
 NC-3-27-11-30: P_3_27 + P_11_30 <= 1
 NC-3-27-12-28: P_3_27 + P_12_28 <= 1
 NC-3-27-12-30: P_3_27 + P_12_30 <= 1
 NC-3-27-13-29: P_3_27 + P_13_29 <= 1
 NC-3-27-16-28: P_3_27 + P_16_28 <= 1
 NC-3-27-16-30: P_3_27 + P_16_30 <= 1
 NC-3-27-17-28: P_3_27 + P_17_28 <= 1
 NC-3-27-17-30: P_3_27 + P_17_30 <= 1
 NC-3-27-18-30: P_3_27 + P_18_30 <= 1
 NC-3-27-19-30: P_3_27 + P_19_30 <= 1
 NC-3-27-20-28: P_3_27 + P_20_28 <= 1
 NC-3-27-20-30: P_3_27 + P_20_30 <= 1
 NC-3-27-21-28: P_3_27 + P_21_28 <= 1
 NC-3-27-21-30: P_3_27 + P_21_30 <= 1
 NC-3-27-22-30: P_3_27 + P_22_30 <= 1
 NC-3-27-23-30: P_3_27 + P_23_30 <= 1
 NC-3-27-24-28: P_3_27 + P_24_28 <= 1
 NC-3-27-24-30: P_3_27 + P_24_30 <= 1
 NC-3-27-26-30: P_3_27 + P_26_30 <= 1
 NC-4-11-5-13: P_4_11 + P_5_13 <= 1
 NC-4-11-5-30: P_4_11 + P_5_30 <= 1
 NC-4-11-6-12: P_4_11 + P_6_12 <= 1
 NC-4-11-6-16: P_4_11 + P_6_16 <= 1
 NC-4-11-6-17: P_4_11 + P_6_17 <= 1
 NC-4-11-6-18: P_4_11 + P_6_18 <= 1
 NC-4-11-6-19: P_4_11 + P_6_19 <= 1
 NC-4-11-6-20: P_4_11 + P_6_20 <= 1
 NC-4-11-6-21: P_4_11 + P_6_21 <= 1
 NC-4-11-6-22: P_4_11 + P_6_22 <= 1
 NC-4-11-6-23: P_4_11 + P_6_23 <= 1
 NC-4-11-6-24: P_4_11 + P_6_24 <= 1
 NC-4-11-6-26: P_4_11 + P_6_26 <= 1
 NC-4-11-6-27: P_4_11 + P_6_27 <= 1
 NC-4-11-6-29: P_4_11 + P_6_29 <= 1
 NC-4-11-7-13: P_4_11 + P_7_13 <= 1
 NC-4-11-7-14: P_4_11 + P_7_14 <= 1
 NC-4-11-7-15: P_4_11 + P_7_15 <= 1
 NC-4-11-7-25: P_4_11 + P_7_25 <= 1
 NC-4-11-7-28: P_4_11 + P_7_28 <= 1
 NC-4-11-7-30: P_4_11 + P_7_30 <= 1
 NC-4-11-8-12: P_4_11 + P_8_12 <= 1
 NC-4-11-8-16: P_4_11 + P_8_16 <= 1
 NC-4-11-8-17: P_4_11 + P_8_17 <= 1
 NC-4-11-8-18: P_4_11 + P_8_18 <= 1
 NC-4-11-8-19: P_4_11 + P_8_19 <= 1
 NC-4-11-8-20: P_4_11 + P_8_20 <= 1
 NC-4-11-8-21: P_4_11 + P_8_21 <= 1
 NC-4-11-8-22: P_4_11 + P_8_22 <= 1
 NC-4-11-8-23: P_4_11 + P_8_23 <= 1
 NC-4-11-8-24: P_4_11 + P_8_24 <= 1
 NC-4-11-8-26: P_4_11 + P_8_26 <= 1
 NC-4-11-8-27: P_4_11 + P_8_27 <= 1
 NC-4-11-8-29: P_4_11 + P_8_29 <= 1
 NC-4-11-9-16: P_4_11 + P_9_16 <= 1
 NC-4-11-9-17: P_4_11 + P_9_17 <= 1
 NC-4-11-9-20: P_4_11 + P_9_20 <= 1
 NC-4-11-9-21: P_4_11 + P_9_21 <= 1
 NC-4-11-9-24: P_4_11 + P_9_24 <= 1
 NC-4-11-9-27: P_4_11 + P_9_27 <= 1
 NC-4-11-10-30: P_4_11 + P_10_30 <= 1
 NC-4-12-5-13: P_4_12 + P_5_13 <= 1
 NC-4-12-5-30: P_4_12 + P_5_30 <= 1
 NC-4-12-6-16: P_4_12 + P_6_16 <= 1
 NC-4-12-6-17: P_4_12 + P_6_17 <= 1
 NC-4-12-6-18: P_4_12 + P_6_18 <= 1
 NC-4-12-6-19: P_4_12 + P_6_19 <= 1
 NC-4-12-6-20: P_4_12 + P_6_20 <= 1
 NC-4-12-6-21: P_4_12 + P_6_21 <= 1
 NC-4-12-6-22: P_4_12 + P_6_22 <= 1
 NC-4-12-6-23: P_4_12 + P_6_23 <= 1
 NC-4-12-6-24: P_4_12 + P_6_24 <= 1
 NC-4-12-6-26: P_4_12 + P_6_26 <= 1
 NC-4-12-6-27: P_4_12 + P_6_27 <= 1
 NC-4-12-6-29: P_4_12 + P_6_29 <= 1
 NC-4-12-7-13: P_4_12 + P_7_13 <= 1
 NC-4-12-7-14: P_4_12 + P_7_14 <= 1
 NC-4-12-7-15: P_4_12 + P_7_15 <= 1
 NC-4-12-7-25: P_4_12 + P_7_25 <= 1
 NC-4-12-7-28: P_4_12 + P_7_28 <= 1
 NC-4-12-7-30: P_4_12 + P_7_30 <= 1
 NC-4-12-8-16: P_4_12 + P_8_16 <= 1
 NC-4-12-8-17: P_4_12 + P_8_17 <= 1
 NC-4-12-8-18: P_4_12 + P_8_18 <= 1
 NC-4-12-8-19: P_4_12 + P_8_19 <= 1
 NC-4-12-8-20: P_4_12 + P_8_20 <= 1
 NC-4-12-8-21: P_4_12 + P_8_21 <= 1
 NC-4-12-8-22: P_4_12 + P_8_22 <= 1
 NC-4-12-8-23: P_4_12 + P_8_23 <= 1
 NC-4-12-8-24: P_4_12 + P_8_24 <= 1
 NC-4-12-8-26: P_4_12 + P_8_26 <= 1
 NC-4-12-8-27: P_4_12 + P_8_27 <= 1
 NC-4-12-8-29: P_4_12 + P_8_29 <= 1
 NC-4-12-9-16: P_4_12 + P_9_16 <= 1
 NC-4-12-9-17: P_4_12 + P_9_17 <= 1
 NC-4-12-9-20: P_4_12 + P_9_20 <= 1
 NC-4-12-9-21: P_4_12 + P_9_21 <= 1
 NC-4-12-9-24: P_4_12 + P_9_24 <= 1
 NC-4-12-9-27: P_4_12 + P_9_27 <= 1
 NC-4-12-10-30: P_4_12 + P_10_30 <= 1
 NC-4-12-11-15: P_4_12 + P_11_15 <= 1
 NC-4-12-11-25: P_4_12 + P_11_25 <= 1
 NC-4-12-11-28: P_4_12 + P_11_28 <= 1
 NC-4-12-11-30: P_4_12 + P_11_30 <= 1
 NC-4-16-5-30: P_4_16 + P_5_30 <= 1
 NC-4-16-6-17: P_4_16 + P_6_17 <= 1
 NC-4-16-6-18: P_4_16 + P_6_18 <= 1
 NC-4-16-6-19: P_4_16 + P_6_19 <= 1
 NC-4-16-6-20: P_4_16 + P_6_20 <= 1
 NC-4-16-6-21: P_4_16 + P_6_21 <= 1
 NC-4-16-6-22: P_4_16 + P_6_22 <= 1
 NC-4-16-6-23: P_4_16 + P_6_23 <= 1
 NC-4-16-6-24: P_4_16 + P_6_24 <= 1
 NC-4-16-6-26: P_4_16 + P_6_26 <= 1
 NC-4-16-6-27: P_4_16 + P_6_27 <= 1
 NC-4-16-6-29: P_4_16 + P_6_29 <= 1
 NC-4-16-7-25: P_4_16 + P_7_25 <= 1
 NC-4-16-7-28: P_4_16 + P_7_28 <= 1
 NC-4-16-7-30: P_4_16 + P_7_30 <= 1
 NC-4-16-8-17: P_4_16 + P_8_17 <= 1
 NC-4-16-8-18: P_4_16 + P_8_18 <= 1
 NC-4-16-8-19: P_4_16 + P_8_19 <= 1
 NC-4-16-8-20: P_4_16 + P_8_20 <= 1
 NC-4-16-8-21: P_4_16 + P_8_21 <= 1
 NC-4-16-8-22: P_4_16 + P_8_22 <= 1
 NC-4-16-8-23: P_4_16 + P_8_23 <= 1
 NC-4-16-8-24: P_4_16 + P_8_24 <= 1
 NC-4-16-8-26: P_4_16 + P_8_26 <= 1
 NC-4-16-8-27: P_4_16 + P_8_27 <= 1
 NC-4-16-8-29: P_4_16 + P_8_29 <= 1
 NC-4-16-9-17: P_4_16 + P_9_17 <= 1
 NC-4-16-9-20: P_4_16 + P_9_20 <= 1
 NC-4-16-9-21: P_4_16 + P_9_21 <= 1
 NC-4-16-9-24: P_4_16 + P_9_24 <= 1
 NC-4-16-9-27: P_4_16 + P_9_27 <= 1
 NC-4-16-10-30: P_4_16 + P_10_30 <= 1
 NC-4-16-11-25: P_4_16 + P_11_25 <= 1
 NC-4-16-11-28: P_4_16 + P_11_28 <= 1
 NC-4-16-11-30: P_4_16 + P_11_30 <= 1
 NC-4-16-12-25: P_4_16 + P_12_25 <= 1
 NC-4-16-12-28: P_4_16 + P_12_28 <= 1
 NC-4-16-12-30: P_4_16 + P_12_30 <= 1
 NC-4-16-13-17: P_4_16 + P_13_17 <= 1
 NC-4-16-13-18: P_4_16 + P_13_18 <= 1
 NC-4-16-13-19: P_4_16 + P_13_19 <= 1
 NC-4-16-13-20: P_4_16 + P_13_20 <= 1
 NC-4-16-13-21: P_4_16 + P_13_21 <= 1
 NC-4-16-13-22: P_4_16 + P_13_22 <= 1
 NC-4-16-13-23: P_4_16 + P_13_23 <= 1
 NC-4-16-13-24: P_4_16 + P_13_24 <= 1
 NC-4-16-13-26: P_4_16 + P_13_26 <= 1
 NC-4-16-13-27: P_4_16 + P_13_27 <= 1
 NC-4-16-13-29: P_4_16 + P_13_29 <= 1
 NC-4-16-14-20: P_4_16 + P_14_20 <= 1
 NC-4-16-14-21: P_4_16 + P_14_21 <= 1
 NC-4-16-14-24: P_4_16 + P_14_24 <= 1
 NC-4-16-14-27: P_4_16 + P_14_27 <= 1
 NC-4-16-15-20: P_4_16 + P_15_20 <= 1
 NC-4-16-15-21: P_4_16 + P_15_21 <= 1
 NC-4-16-15-24: P_4_16 + P_15_24 <= 1
 NC-4-16-15-27: P_4_16 + P_15_27 <= 1
 NC-4-17-5-30: P_4_17 + P_5_30 <= 1
 NC-4-17-6-18: P_4_17 + P_6_18 <= 1
 NC-4-17-6-19: P_4_17 + P_6_19 <= 1
 NC-4-17-6-20: P_4_17 + P_6_20 <= 1
 NC-4-17-6-21: P_4_17 + P_6_21 <= 1
 NC-4-17-6-22: P_4_17 + P_6_22 <= 1
 NC-4-17-6-23: P_4_17 + P_6_23 <= 1
 NC-4-17-6-24: P_4_17 + P_6_24 <= 1
 NC-4-17-6-26: P_4_17 + P_6_26 <= 1
 NC-4-17-6-27: P_4_17 + P_6_27 <= 1
 NC-4-17-6-29: P_4_17 + P_6_29 <= 1
 NC-4-17-7-25: P_4_17 + P_7_25 <= 1
 NC-4-17-7-28: P_4_17 + P_7_28 <= 1
 NC-4-17-7-30: P_4_17 + P_7_30 <= 1
 NC-4-17-8-18: P_4_17 + P_8_18 <= 1
 NC-4-17-8-19: P_4_17 + P_8_19 <= 1
 NC-4-17-8-20: P_4_17 + P_8_20 <= 1
 NC-4-17-8-21: P_4_17 + P_8_21 <= 1
 NC-4-17-8-22: P_4_17 + P_8_22 <= 1
 NC-4-17-8-23: P_4_17 + P_8_23 <= 1
 NC-4-17-8-24: P_4_17 + P_8_24 <= 1
 NC-4-17-8-26: P_4_17 + P_8_26 <= 1
 NC-4-17-8-27: P_4_17 + P_8_27 <= 1
 NC-4-17-8-29: P_4_17 + P_8_29 <= 1
 NC-4-17-9-20: P_4_17 + P_9_20 <= 1
 NC-4-17-9-21: P_4_17 + P_9_21 <= 1
 NC-4-17-9-24: P_4_17 + P_9_24 <= 1
 NC-4-17-9-27: P_4_17 + P_9_27 <= 1
 NC-4-17-10-30: P_4_17 + P_10_30 <= 1
 NC-4-17-11-25: P_4_17 + P_11_25 <= 1
 NC-4-17-11-28: P_4_17 + P_11_28 <= 1
 NC-4-17-11-30: P_4_17 + P_11_30 <= 1
 NC-4-17-12-25: P_4_17 + P_12_25 <= 1
 NC-4-17-12-28: P_4_17 + P_12_28 <= 1
 NC-4-17-12-30: P_4_17 + P_12_30 <= 1
 NC-4-17-13-18: P_4_17 + P_13_18 <= 1
 NC-4-17-13-19: P_4_17 + P_13_19 <= 1
 NC-4-17-13-20: P_4_17 + P_13_20 <= 1
 NC-4-17-13-21: P_4_17 + P_13_21 <= 1
 NC-4-17-13-22: P_4_17 + P_13_22 <= 1
 NC-4-17-13-23: P_4_17 + P_13_23 <= 1
 NC-4-17-13-24: P_4_17 + P_13_24 <= 1
 NC-4-17-13-26: P_4_17 + P_13_26 <= 1
 NC-4-17-13-27: P_4_17 + P_13_27 <= 1
 NC-4-17-13-29: P_4_17 + P_13_29 <= 1
 NC-4-17-14-20: P_4_17 + P_14_20 <= 1
 NC-4-17-14-21: P_4_17 + P_14_21 <= 1
 NC-4-17-14-24: P_4_17 + P_14_24 <= 1
 NC-4-17-14-27: P_4_17 + P_14_27 <= 1
 NC-4-17-15-20: P_4_17 + P_15_20 <= 1
 NC-4-17-15-21: P_4_17 + P_15_21 <= 1
 NC-4-17-15-24: P_4_17 + P_15_24 <= 1
 NC-4-17-15-27: P_4_17 + P_15_27 <= 1
 NC-4-17-16-25: P_4_17 + P_16_25 <= 1
 NC-4-17-16-28: P_4_17 + P_16_28 <= 1
 NC-4-17-16-30: P_4_17 + P_16_30 <= 1
 NC-4-20-5-30: P_4_20 + P_5_30 <= 1
 NC-4-20-6-21: P_4_20 + P_6_21 <= 1
 NC-4-20-6-22: P_4_20 + P_6_22 <= 1
 NC-4-20-6-23: P_4_20 + P_6_23 <= 1
 NC-4-20-6-24: P_4_20 + P_6_24 <= 1
 NC-4-20-6-26: P_4_20 + P_6_26 <= 1
 NC-4-20-6-27: P_4_20 + P_6_27 <= 1
 NC-4-20-6-29: P_4_20 + P_6_29 <= 1
 NC-4-20-7-25: P_4_20 + P_7_25 <= 1
 NC-4-20-7-28: P_4_20 + P_7_28 <= 1
 NC-4-20-7-30: P_4_20 + P_7_30 <= 1
 NC-4-20-8-21: P_4_20 + P_8_21 <= 1
 NC-4-20-8-22: P_4_20 + P_8_22 <= 1
 NC-4-20-8-23: P_4_20 + P_8_23 <= 1
 NC-4-20-8-24: P_4_20 + P_8_24 <= 1
 NC-4-20-8-26: P_4_20 + P_8_26 <= 1
 NC-4-20-8-27: P_4_20 + P_8_27 <= 1
 NC-4-20-8-29: P_4_20 + P_8_29 <= 1
 NC-4-20-9-21: P_4_20 + P_9_21 <= 1
 NC-4-20-9-24: P_4_20 + P_9_24 <= 1
 NC-4-20-9-27: P_4_20 + P_9_27 <= 1
 NC-4-20-10-30: P_4_20 + P_10_30 <= 1
 NC-4-20-11-25: P_4_20 + P_11_25 <= 1
 NC-4-20-11-28: P_4_20 + P_11_28 <= 1
 NC-4-20-11-30: P_4_20 + P_11_30 <= 1
 NC-4-20-12-25: P_4_20 + P_12_25 <= 1
 NC-4-20-12-28: P_4_20 + P_12_28 <= 1
 NC-4-20-12-30: P_4_20 + P_12_30 <= 1
 NC-4-20-13-21: P_4_20 + P_13_21 <= 1
 NC-4-20-13-22: P_4_20 + P_13_22 <= 1
 NC-4-20-13-23: P_4_20 + P_13_23 <= 1
 NC-4-20-13-24: P_4_20 + P_13_24 <= 1
 NC-4-20-13-26: P_4_20 + P_13_26 <= 1
 NC-4-20-13-27: P_4_20 + P_13_27 <= 1
 NC-4-20-13-29: P_4_20 + P_13_29 <= 1
 NC-4-20-14-21: P_4_20 + P_14_21 <= 1
 NC-4-20-14-24: P_4_20 + P_14_24 <= 1
 NC-4-20-14-27: P_4_20 + P_14_27 <= 1
 NC-4-20-15-21: P_4_20 + P_15_21 <= 1
 NC-4-20-15-24: P_4_20 + P_15_24 <= 1
 NC-4-20-15-27: P_4_20 + P_15_27 <= 1
 NC-4-20-16-25: P_4_20 + P_16_25 <= 1
 NC-4-20-16-28: P_4_20 + P_16_28 <= 1
 NC-4-20-16-30: P_4_20 + P_16_30 <= 1
 NC-4-20-17-25: P_4_20 + P_17_25 <= 1
 NC-4-20-17-28: P_4_20 + P_17_28 <= 1
 NC-4-20-17-30: P_4_20 + P_17_30 <= 1
 NC-4-20-18-30: P_4_20 + P_18_30 <= 1
 NC-4-20-19-30: P_4_20 + P_19_30 <= 1
 NC-4-21-5-30: P_4_21 + P_5_30 <= 1
 NC-4-21-6-22: P_4_21 + P_6_22 <= 1
 NC-4-21-6-23: P_4_21 + P_6_23 <= 1
 NC-4-21-6-24: P_4_21 + P_6_24 <= 1
 NC-4-21-6-26: P_4_21 + P_6_26 <= 1
 NC-4-21-6-27: P_4_21 + P_6_27 <= 1
 NC-4-21-6-29: P_4_21 + P_6_29 <= 1
 NC-4-21-7-25: P_4_21 + P_7_25 <= 1
 NC-4-21-7-28: P_4_21 + P_7_28 <= 1
 NC-4-21-7-30: P_4_21 + P_7_30 <= 1
 NC-4-21-8-22: P_4_21 + P_8_22 <= 1
 NC-4-21-8-23: P_4_21 + P_8_23 <= 1
 NC-4-21-8-24: P_4_21 + P_8_24 <= 1
 NC-4-21-8-26: P_4_21 + P_8_26 <= 1
 NC-4-21-8-27: P_4_21 + P_8_27 <= 1
 NC-4-21-8-29: P_4_21 + P_8_29 <= 1
 NC-4-21-9-24: P_4_21 + P_9_24 <= 1
 NC-4-21-9-27: P_4_21 + P_9_27 <= 1
 NC-4-21-10-30: P_4_21 + P_10_30 <= 1
 NC-4-21-11-25: P_4_21 + P_11_25 <= 1
 NC-4-21-11-28: P_4_21 + P_11_28 <= 1
 NC-4-21-11-30: P_4_21 + P_11_30 <= 1
 NC-4-21-12-25: P_4_21 + P_12_25 <= 1
 NC-4-21-12-28: P_4_21 + P_12_28 <= 1
 NC-4-21-12-30: P_4_21 + P_12_30 <= 1
 NC-4-21-13-22: P_4_21 + P_13_22 <= 1
 NC-4-21-13-23: P_4_21 + P_13_23 <= 1
 NC-4-21-13-24: P_4_21 + P_13_24 <= 1
 NC-4-21-13-26: P_4_21 + P_13_26 <= 1
 NC-4-21-13-27: P_4_21 + P_13_27 <= 1
 NC-4-21-13-29: P_4_21 + P_13_29 <= 1
 NC-4-21-14-24: P_4_21 + P_14_24 <= 1
 NC-4-21-14-27: P_4_21 + P_14_27 <= 1
 NC-4-21-15-24: P_4_21 + P_15_24 <= 1
 NC-4-21-15-27: P_4_21 + P_15_27 <= 1
 NC-4-21-16-25: P_4_21 + P_16_25 <= 1
 NC-4-21-16-28: P_4_21 + P_16_28 <= 1
 NC-4-21-16-30: P_4_21 + P_16_30 <= 1
 NC-4-21-17-25: P_4_21 + P_17_25 <= 1
 NC-4-21-17-28: P_4_21 + P_17_28 <= 1
 NC-4-21-17-30: P_4_21 + P_17_30 <= 1
 NC-4-21-18-30: P_4_21 + P_18_30 <= 1
 NC-4-21-19-30: P_4_21 + P_19_30 <= 1
 NC-4-21-20-25: P_4_21 + P_20_25 <= 1
 NC-4-21-20-28: P_4_21 + P_20_28 <= 1
 NC-4-21-20-30: P_4_21 + P_20_30 <= 1
 NC-4-24-5-30: P_4_24 + P_5_30 <= 1
 NC-4-24-6-26: P_4_24 + P_6_26 <= 1
 NC-4-24-6-27: P_4_24 + P_6_27 <= 1
 NC-4-24-6-29: P_4_24 + P_6_29 <= 1
 NC-4-24-7-25: P_4_24 + P_7_25 <= 1
 NC-4-24-7-28: P_4_24 + P_7_28 <= 1
 NC-4-24-7-30: P_4_24 + P_7_30 <= 1
 NC-4-24-8-26: P_4_24 + P_8_26 <= 1
 NC-4-24-8-27: P_4_24 + P_8_27 <= 1
 NC-4-24-8-29: P_4_24 + P_8_29 <= 1
 NC-4-24-9-27: P_4_24 + P_9_27 <= 1
 NC-4-24-10-30: P_4_24 + P_10_30 <= 1
 NC-4-24-11-25: P_4_24 + P_11_25 <= 1
 NC-4-24-11-28: P_4_24 + P_11_28 <= 1
 NC-4-24-11-30: P_4_24 + P_11_30 <= 1
 NC-4-24-12-25: P_4_24 + P_12_25 <= 1
 NC-4-24-12-28: P_4_24 + P_12_28 <= 1
 NC-4-24-12-30: P_4_24 + P_12_30 <= 1
 NC-4-24-13-26: P_4_24 + P_13_26 <= 1
 NC-4-24-13-27: P_4_24 + P_13_27 <= 1
 NC-4-24-13-29: P_4_24 + P_13_29 <= 1
 NC-4-24-14-27: P_4_24 + P_14_27 <= 1
 NC-4-24-15-27: P_4_24 + P_15_27 <= 1
 NC-4-24-16-25: P_4_24 + P_16_25 <= 1
 NC-4-24-16-28: P_4_24 + P_16_28 <= 1
 NC-4-24-16-30: P_4_24 + P_16_30 <= 1
 NC-4-24-17-25: P_4_24 + P_17_25 <= 1
 NC-4-24-17-28: P_4_24 + P_17_28 <= 1
 NC-4-24-17-30: P_4_24 + P_17_30 <= 1
 NC-4-24-18-30: P_4_24 + P_18_30 <= 1
 NC-4-24-19-30: P_4_24 + P_19_30 <= 1
 NC-4-24-20-25: P_4_24 + P_20_25 <= 1
 NC-4-24-20-28: P_4_24 + P_20_28 <= 1
 NC-4-24-20-30: P_4_24 + P_20_30 <= 1
 NC-4-24-21-25: P_4_24 + P_21_25 <= 1
 NC-4-24-21-28: P_4_24 + P_21_28 <= 1
 NC-4-24-21-30: P_4_24 + P_21_30 <= 1
 NC-4-24-22-30: P_4_24 + P_22_30 <= 1
 NC-4-24-23-30: P_4_24 + P_23_30 <= 1
 NC-4-27-5-30: P_4_27 + P_5_30 <= 1
 NC-4-27-6-29: P_4_27 + P_6_29 <= 1
 NC-4-27-7-28: P_4_27 + P_7_28 <= 1
 NC-4-27-7-30: P_4_27 + P_7_30 <= 1
 NC-4-27-8-29: P_4_27 + P_8_29 <= 1
 NC-4-27-10-30: P_4_27 + P_10_30 <= 1
 NC-4-27-11-28: P_4_27 + P_11_28 <= 1
 NC-4-27-11-30: P_4_27 + P_11_30 <= 1
 NC-4-27-12-28: P_4_27 + P_12_28 <= 1
 NC-4-27-12-30: P_4_27 + P_12_30 <= 1
 NC-4-27-13-29: P_4_27 + P_13_29 <= 1
 NC-4-27-16-28: P_4_27 + P_16_28 <= 1
 NC-4-27-16-30: P_4_27 + P_16_30 <= 1
 NC-4-27-17-28: P_4_27 + P_17_28 <= 1
 NC-4-27-17-30: P_4_27 + P_17_30 <= 1
 NC-4-27-18-30: P_4_27 + P_18_30 <= 1
 NC-4-27-19-30: P_4_27 + P_19_30 <= 1
 NC-4-27-20-28: P_4_27 + P_20_28 <= 1
 NC-4-27-20-30: P_4_27 + P_20_30 <= 1
 NC-4-27-21-28: P_4_27 + P_21_28 <= 1
 NC-4-27-21-30: P_4_27 + P_21_30 <= 1
 NC-4-27-22-30: P_4_27 + P_22_30 <= 1
 NC-4-27-23-30: P_4_27 + P_23_30 <= 1
 NC-4-27-24-28: P_4_27 + P_24_28 <= 1
 NC-4-27-24-30: P_4_27 + P_24_30 <= 1
 NC-4-27-26-30: P_4_27 + P_26_30 <= 1
 NC-5-13-6-16: P_5_13 + P_6_16 <= 1
 NC-5-13-6-17: P_5_13 + P_6_17 <= 1
 NC-5-13-6-18: P_5_13 + P_6_18 <= 1
 NC-5-13-6-19: P_5_13 + P_6_19 <= 1
 NC-5-13-6-20: P_5_13 + P_6_20 <= 1
 NC-5-13-6-21: P_5_13 + P_6_21 <= 1
 NC-5-13-6-22: P_5_13 + P_6_22 <= 1
 NC-5-13-6-23: P_5_13 + P_6_23 <= 1
 NC-5-13-6-24: P_5_13 + P_6_24 <= 1
 NC-5-13-6-26: P_5_13 + P_6_26 <= 1
 NC-5-13-6-27: P_5_13 + P_6_27 <= 1
 NC-5-13-6-29: P_5_13 + P_6_29 <= 1
 NC-5-13-7-14: P_5_13 + P_7_14 <= 1
 NC-5-13-7-15: P_5_13 + P_7_15 <= 1
 NC-5-13-7-25: P_5_13 + P_7_25 <= 1
 NC-5-13-7-28: P_5_13 + P_7_28 <= 1
 NC-5-13-7-30: P_5_13 + P_7_30 <= 1
 NC-5-13-8-16: P_5_13 + P_8_16 <= 1
 NC-5-13-8-17: P_5_13 + P_8_17 <= 1
 NC-5-13-8-18: P_5_13 + P_8_18 <= 1
 NC-5-13-8-19: P_5_13 + P_8_19 <= 1
 NC-5-13-8-20: P_5_13 + P_8_20 <= 1
 NC-5-13-8-21: P_5_13 + P_8_21 <= 1
 NC-5-13-8-22: P_5_13 + P_8_22 <= 1
 NC-5-13-8-23: P_5_13 + P_8_23 <= 1
 NC-5-13-8-24: P_5_13 + P_8_24 <= 1
 NC-5-13-8-26: P_5_13 + P_8_26 <= 1
 NC-5-13-8-27: P_5_13 + P_8_27 <= 1
 NC-5-13-8-29: P_5_13 + P_8_29 <= 1
 NC-5-13-9-16: P_5_13 + P_9_16 <= 1
 NC-5-13-9-17: P_5_13 + P_9_17 <= 1
 NC-5-13-9-20: P_5_13 + P_9_20 <= 1
 NC-5-13-9-21: P_5_13 + P_9_21 <= 1
 NC-5-13-9-24: P_5_13 + P_9_24 <= 1
 NC-5-13-9-27: P_5_13 + P_9_27 <= 1
 NC-5-13-10-30: P_5_13 + P_10_30 <= 1
 NC-5-13-11-15: P_5_13 + P_11_15 <= 1
 NC-5-13-11-25: P_5_13 + P_11_25 <= 1
 NC-5-13-11-28: P_5_13 + P_11_28 <= 1
 NC-5-13-11-30: P_5_13 + P_11_30 <= 1
 NC-5-13-12-25: P_5_13 + P_12_25 <= 1
 NC-5-13-12-28: P_5_13 + P_12_28 <= 1
 NC-5-13-12-30: P_5_13 + P_12_30 <= 1
 NC-6-10-7-13: P_6_10 + P_7_13 <= 1
 NC-6-10-7-14: P_6_10 + P_7_14 <= 1
 NC-6-10-7-15: P_6_10 + P_7_15 <= 1
 NC-6-10-7-25: P_6_10 + P_7_25 <= 1
 NC-6-10-7-28: P_6_10 + P_7_28 <= 1
 NC-6-10-7-30: P_6_10 + P_7_30 <= 1
 NC-6-10-8-12: P_6_10 + P_8_12 <= 1
 NC-6-10-8-16: P_6_10 + P_8_16 <= 1
 NC-6-10-8-17: P_6_10 + P_8_17 <= 1
 NC-6-10-8-18: P_6_10 + P_8_18 <= 1
 NC-6-10-8-19: P_6_10 + P_8_19 <= 1
 NC-6-10-8-20: P_6_10 + P_8_20 <= 1
 NC-6-10-8-21: P_6_10 + P_8_21 <= 1
 NC-6-10-8-22: P_6_10 + P_8_22 <= 1
 NC-6-10-8-23: P_6_10 + P_8_23 <= 1
 NC-6-10-8-24: P_6_10 + P_8_24 <= 1
 NC-6-10-8-26: P_6_10 + P_8_26 <= 1
 NC-6-10-8-27: P_6_10 + P_8_27 <= 1
 NC-6-10-8-29: P_6_10 + P_8_29 <= 1
 NC-6-10-9-16: P_6_10 + P_9_16 <= 1
 NC-6-10-9-17: P_6_10 + P_9_17 <= 1
 NC-6-10-9-20: P_6_10 + P_9_20 <= 1
 NC-6-10-9-21: P_6_10 + P_9_21 <= 1
 NC-6-10-9-24: P_6_10 + P_9_24 <= 1
 NC-6-10-9-27: P_6_10 + P_9_27 <= 1
 NC-6-11-7-13: P_6_11 + P_7_13 <= 1
 NC-6-11-7-14: P_6_11 + P_7_14 <= 1
 NC-6-11-7-15: P_6_11 + P_7_15 <= 1
 NC-6-11-7-25: P_6_11 + P_7_25 <= 1
 NC-6-11-7-28: P_6_11 + P_7_28 <= 1
 NC-6-11-7-30: P_6_11 + P_7_30 <= 1
 NC-6-11-8-12: P_6_11 + P_8_12 <= 1
 NC-6-11-8-16: P_6_11 + P_8_16 <= 1
 NC-6-11-8-17: P_6_11 + P_8_17 <= 1
 NC-6-11-8-18: P_6_11 + P_8_18 <= 1
 NC-6-11-8-19: P_6_11 + P_8_19 <= 1
 NC-6-11-8-20: P_6_11 + P_8_20 <= 1
 NC-6-11-8-21: P_6_11 + P_8_21 <= 1
 NC-6-11-8-22: P_6_11 + P_8_22 <= 1
 NC-6-11-8-23: P_6_11 + P_8_23 <= 1
 NC-6-11-8-24: P_6_11 + P_8_24 <= 1
 NC-6-11-8-26: P_6_11 + P_8_26 <= 1
 NC-6-11-8-27: P_6_11 + P_8_27 <= 1
 NC-6-11-8-29: P_6_11 + P_8_29 <= 1
 NC-6-11-9-16: P_6_11 + P_9_16 <= 1
 NC-6-11-9-17: P_6_11 + P_9_17 <= 1
 NC-6-11-9-20: P_6_11 + P_9_20 <= 1
 NC-6-11-9-21: P_6_11 + P_9_21 <= 1
 NC-6-11-9-24: P_6_11 + P_9_24 <= 1
 NC-6-11-9-27: P_6_11 + P_9_27 <= 1
 NC-6-11-10-30: P_6_11 + P_10_30 <= 1
 NC-6-12-7-13: P_6_12 + P_7_13 <= 1
 NC-6-12-7-14: P_6_12 + P_7_14 <= 1
 NC-6-12-7-15: P_6_12 + P_7_15 <= 1
 NC-6-12-7-25: P_6_12 + P_7_25 <= 1
 NC-6-12-7-28: P_6_12 + P_7_28 <= 1
 NC-6-12-7-30: P_6_12 + P_7_30 <= 1
 NC-6-12-8-16: P_6_12 + P_8_16 <= 1
 NC-6-12-8-17: P_6_12 + P_8_17 <= 1
 NC-6-12-8-18: P_6_12 + P_8_18 <= 1
 NC-6-12-8-19: P_6_12 + P_8_19 <= 1
 NC-6-12-8-20: P_6_12 + P_8_20 <= 1
 NC-6-12-8-21: P_6_12 + P_8_21 <= 1
 NC-6-12-8-22: P_6_12 + P_8_22 <= 1
 NC-6-12-8-23: P_6_12 + P_8_23 <= 1
 NC-6-12-8-24: P_6_12 + P_8_24 <= 1
 NC-6-12-8-26: P_6_12 + P_8_26 <= 1
 NC-6-12-8-27: P_6_12 + P_8_27 <= 1
 NC-6-12-8-29: P_6_12 + P_8_29 <= 1
 NC-6-12-9-16: P_6_12 + P_9_16 <= 1
 NC-6-12-9-17: P_6_12 + P_9_17 <= 1
 NC-6-12-9-20: P_6_12 + P_9_20 <= 1
 NC-6-12-9-21: P_6_12 + P_9_21 <= 1
 NC-6-12-9-24: P_6_12 + P_9_24 <= 1
 NC-6-12-9-27: P_6_12 + P_9_27 <= 1
 NC-6-12-10-30: P_6_12 + P_10_30 <= 1
 NC-6-12-11-15: P_6_12 + P_11_15 <= 1
 NC-6-12-11-25: P_6_12 + P_11_25 <= 1
 NC-6-12-11-28: P_6_12 + P_11_28 <= 1
 NC-6-12-11-30: P_6_12 + P_11_30 <= 1
 NC-6-16-7-25: P_6_16 + P_7_25 <= 1
 NC-6-16-7-28: P_6_16 + P_7_28 <= 1
 NC-6-16-7-30: P_6_16 + P_7_30 <= 1
 NC-6-16-8-17: P_6_16 + P_8_17 <= 1
 NC-6-16-8-18: P_6_16 + P_8_18 <= 1
 NC-6-16-8-19: P_6_16 + P_8_19 <= 1
 NC-6-16-8-20: P_6_16 + P_8_20 <= 1
 NC-6-16-8-21: P_6_16 + P_8_21 <= 1
 NC-6-16-8-22: P_6_16 + P_8_22 <= 1
 NC-6-16-8-23: P_6_16 + P_8_23 <= 1
 NC-6-16-8-24: P_6_16 + P_8_24 <= 1
 NC-6-16-8-26: P_6_16 + P_8_26 <= 1
 NC-6-16-8-27: P_6_16 + P_8_27 <= 1
 NC-6-16-8-29: P_6_16 + P_8_29 <= 1
 NC-6-16-9-17: P_6_16 + P_9_17 <= 1
 NC-6-16-9-20: P_6_16 + P_9_20 <= 1
 NC-6-16-9-21: P_6_16 + P_9_21 <= 1
 NC-6-16-9-24: P_6_16 + P_9_24 <= 1
 NC-6-16-9-27: P_6_16 + P_9_27 <= 1
 NC-6-16-10-30: P_6_16 + P_10_30 <= 1
 NC-6-16-11-25: P_6_16 + P_11_25 <= 1
 NC-6-16-11-28: P_6_16 + P_11_28 <= 1
 NC-6-16-11-30: P_6_16 + P_11_30 <= 1
 NC-6-16-12-25: P_6_16 + P_12_25 <= 1
 NC-6-16-12-28: P_6_16 + P_12_28 <= 1
 NC-6-16-12-30: P_6_16 + P_12_30 <= 1
 NC-6-16-13-17: P_6_16 + P_13_17 <= 1
 NC-6-16-13-18: P_6_16 + P_13_18 <= 1
 NC-6-16-13-19: P_6_16 + P_13_19 <= 1
 NC-6-16-13-20: P_6_16 + P_13_20 <= 1
 NC-6-16-13-21: P_6_16 + P_13_21 <= 1
 NC-6-16-13-22: P_6_16 + P_13_22 <= 1
 NC-6-16-13-23: P_6_16 + P_13_23 <= 1
 NC-6-16-13-24: P_6_16 + P_13_24 <= 1
 NC-6-16-13-26: P_6_16 + P_13_26 <= 1
 NC-6-16-13-27: P_6_16 + P_13_27 <= 1
 NC-6-16-13-29: P_6_16 + P_13_29 <= 1
 NC-6-16-14-20: P_6_16 + P_14_20 <= 1
 NC-6-16-14-21: P_6_16 + P_14_21 <= 1
 NC-6-16-14-24: P_6_16 + P_14_24 <= 1
 NC-6-16-14-27: P_6_16 + P_14_27 <= 1
 NC-6-16-15-20: P_6_16 + P_15_20 <= 1
 NC-6-16-15-21: P_6_16 + P_15_21 <= 1
 NC-6-16-15-24: P_6_16 + P_15_24 <= 1
 NC-6-16-15-27: P_6_16 + P_15_27 <= 1
 NC-6-17-7-25: P_6_17 + P_7_25 <= 1
 NC-6-17-7-28: P_6_17 + P_7_28 <= 1
 NC-6-17-7-30: P_6_17 + P_7_30 <= 1
 NC-6-17-8-18: P_6_17 + P_8_18 <= 1
 NC-6-17-8-19: P_6_17 + P_8_19 <= 1
 NC-6-17-8-20: P_6_17 + P_8_20 <= 1
 NC-6-17-8-21: P_6_17 + P_8_21 <= 1
 NC-6-17-8-22: P_6_17 + P_8_22 <= 1
 NC-6-17-8-23: P_6_17 + P_8_23 <= 1
 NC-6-17-8-24: P_6_17 + P_8_24 <= 1
 NC-6-17-8-26: P_6_17 + P_8_26 <= 1
 NC-6-17-8-27: P_6_17 + P_8_27 <= 1
 NC-6-17-8-29: P_6_17 + P_8_29 <= 1
 NC-6-17-9-20: P_6_17 + P_9_20 <= 1
 NC-6-17-9-21: P_6_17 + P_9_21 <= 1
 NC-6-17-9-24: P_6_17 + P_9_24 <= 1
 NC-6-17-9-27: P_6_17 + P_9_27 <= 1
 NC-6-17-10-30: P_6_17 + P_10_30 <= 1
 NC-6-17-11-25: P_6_17 + P_11_25 <= 1
 NC-6-17-11-28: P_6_17 + P_11_28 <= 1
 NC-6-17-11-30: P_6_17 + P_11_30 <= 1
 NC-6-17-12-25: P_6_17 + P_12_25 <= 1
 NC-6-17-12-28: P_6_17 + P_12_28 <= 1
 NC-6-17-12-30: P_6_17 + P_12_30 <= 1
 NC-6-17-13-18: P_6_17 + P_13_18 <= 1
 NC-6-17-13-19: P_6_17 + P_13_19 <= 1
 NC-6-17-13-20: P_6_17 + P_13_20 <= 1
 NC-6-17-13-21: P_6_17 + P_13_21 <= 1
 NC-6-17-13-22: P_6_17 + P_13_22 <= 1
 NC-6-17-13-23: P_6_17 + P_13_23 <= 1
 NC-6-17-13-24: P_6_17 + P_13_24 <= 1
 NC-6-17-13-26: P_6_17 + P_13_26 <= 1
 NC-6-17-13-27: P_6_17 + P_13_27 <= 1
 NC-6-17-13-29: P_6_17 + P_13_29 <= 1
 NC-6-17-14-20: P_6_17 + P_14_20 <= 1
 NC-6-17-14-21: P_6_17 + P_14_21 <= 1
 NC-6-17-14-24: P_6_17 + P_14_24 <= 1
 NC-6-17-14-27: P_6_17 + P_14_27 <= 1
 NC-6-17-15-20: P_6_17 + P_15_20 <= 1
 NC-6-17-15-21: P_6_17 + P_15_21 <= 1
 NC-6-17-15-24: P_6_17 + P_15_24 <= 1
 NC-6-17-15-27: P_6_17 + P_15_27 <= 1
 NC-6-17-16-25: P_6_17 + P_16_25 <= 1
 NC-6-17-16-28: P_6_17 + P_16_28 <= 1
 NC-6-17-16-30: P_6_17 + P_16_30 <= 1
 NC-6-18-7-25: P_6_18 + P_7_25 <= 1
 NC-6-18-7-28: P_6_18 + P_7_28 <= 1
 NC-6-18-7-30: P_6_18 + P_7_30 <= 1
 NC-6-18-8-19: P_6_18 + P_8_19 <= 1
 NC-6-18-8-20: P_6_18 + P_8_20 <= 1
 NC-6-18-8-21: P_6_18 + P_8_21 <= 1
 NC-6-18-8-22: P_6_18 + P_8_22 <= 1
 NC-6-18-8-23: P_6_18 + P_8_23 <= 1
 NC-6-18-8-24: P_6_18 + P_8_24 <= 1
 NC-6-18-8-26: P_6_18 + P_8_26 <= 1
 NC-6-18-8-27: P_6_18 + P_8_27 <= 1
 NC-6-18-8-29: P_6_18 + P_8_29 <= 1
 NC-6-18-9-20: P_6_18 + P_9_20 <= 1
 NC-6-18-9-21: P_6_18 + P_9_21 <= 1
 NC-6-18-9-24: P_6_18 + P_9_24 <= 1
 NC-6-18-9-27: P_6_18 + P_9_27 <= 1
 NC-6-18-10-30: P_6_18 + P_10_30 <= 1
 NC-6-18-11-25: P_6_18 + P_11_25 <= 1
 NC-6-18-11-28: P_6_18 + P_11_28 <= 1
 NC-6-18-11-30: P_6_18 + P_11_30 <= 1
 NC-6-18-12-25: P_6_18 + P_12_25 <= 1
 NC-6-18-12-28: P_6_18 + P_12_28 <= 1
 NC-6-18-12-30: P_6_18 + P_12_30 <= 1
 NC-6-18-13-19: P_6_18 + P_13_19 <= 1
 NC-6-18-13-20: P_6_18 + P_13_20 <= 1
 NC-6-18-13-21: P_6_18 + P_13_21 <= 1
 NC-6-18-13-22: P_6_18 + P_13_22 <= 1
 NC-6-18-13-23: P_6_18 + P_13_23 <= 1
 NC-6-18-13-24: P_6_18 + P_13_24 <= 1
 NC-6-18-13-26: P_6_18 + P_13_26 <= 1
 NC-6-18-13-27: P_6_18 + P_13_27 <= 1
 NC-6-18-13-29: P_6_18 + P_13_29 <= 1
 NC-6-18-14-20: P_6_18 + P_14_20 <= 1
 NC-6-18-14-21: P_6_18 + P_14_21 <= 1
 NC-6-18-14-24: P_6_18 + P_14_24 <= 1
 NC-6-18-14-27: P_6_18 + P_14_27 <= 1
 NC-6-18-15-20: P_6_18 + P_15_20 <= 1
 NC-6-18-15-21: P_6_18 + P_15_21 <= 1
 NC-6-18-15-24: P_6_18 + P_15_24 <= 1
 NC-6-18-15-27: P_6_18 + P_15_27 <= 1
 NC-6-18-16-25: P_6_18 + P_16_25 <= 1
 NC-6-18-16-28: P_6_18 + P_16_28 <= 1
 NC-6-18-16-30: P_6_18 + P_16_30 <= 1
 NC-6-18-17-25: P_6_18 + P_17_25 <= 1
 NC-6-18-17-28: P_6_18 + P_17_28 <= 1
 NC-6-18-17-30: P_6_18 + P_17_30 <= 1
 NC-6-19-7-25: P_6_19 + P_7_25 <= 1
 NC-6-19-7-28: P_6_19 + P_7_28 <= 1
 NC-6-19-7-30: P_6_19 + P_7_30 <= 1
 NC-6-19-8-20: P_6_19 + P_8_20 <= 1
 NC-6-19-8-21: P_6_19 + P_8_21 <= 1
 NC-6-19-8-22: P_6_19 + P_8_22 <= 1
 NC-6-19-8-23: P_6_19 + P_8_23 <= 1
 NC-6-19-8-24: P_6_19 + P_8_24 <= 1
 NC-6-19-8-26: P_6_19 + P_8_26 <= 1
 NC-6-19-8-27: P_6_19 + P_8_27 <= 1
 NC-6-19-8-29: P_6_19 + P_8_29 <= 1
 NC-6-19-9-20: P_6_19 + P_9_20 <= 1
 NC-6-19-9-21: P_6_19 + P_9_21 <= 1
 NC-6-19-9-24: P_6_19 + P_9_24 <= 1
 NC-6-19-9-27: P_6_19 + P_9_27 <= 1
 NC-6-19-10-30: P_6_19 + P_10_30 <= 1
 NC-6-19-11-25: P_6_19 + P_11_25 <= 1
 NC-6-19-11-28: P_6_19 + P_11_28 <= 1
 NC-6-19-11-30: P_6_19 + P_11_30 <= 1
 NC-6-19-12-25: P_6_19 + P_12_25 <= 1
 NC-6-19-12-28: P_6_19 + P_12_28 <= 1
 NC-6-19-12-30: P_6_19 + P_12_30 <= 1
 NC-6-19-13-20: P_6_19 + P_13_20 <= 1
 NC-6-19-13-21: P_6_19 + P_13_21 <= 1
 NC-6-19-13-22: P_6_19 + P_13_22 <= 1
 NC-6-19-13-23: P_6_19 + P_13_23 <= 1
 NC-6-19-13-24: P_6_19 + P_13_24 <= 1
 NC-6-19-13-26: P_6_19 + P_13_26 <= 1
 NC-6-19-13-27: P_6_19 + P_13_27 <= 1
 NC-6-19-13-29: P_6_19 + P_13_29 <= 1
 NC-6-19-14-20: P_6_19 + P_14_20 <= 1
 NC-6-19-14-21: P_6_19 + P_14_21 <= 1
 NC-6-19-14-24: P_6_19 + P_14_24 <= 1
 NC-6-19-14-27: P_6_19 + P_14_27 <= 1
 NC-6-19-15-20: P_6_19 + P_15_20 <= 1
 NC-6-19-15-21: P_6_19 + P_15_21 <= 1
 NC-6-19-15-24: P_6_19 + P_15_24 <= 1
 NC-6-19-15-27: P_6_19 + P_15_27 <= 1
 NC-6-19-16-25: P_6_19 + P_16_25 <= 1
 NC-6-19-16-28: P_6_19 + P_16_28 <= 1
 NC-6-19-16-30: P_6_19 + P_16_30 <= 1
 NC-6-19-17-25: P_6_19 + P_17_25 <= 1
 NC-6-19-17-28: P_6_19 + P_17_28 <= 1
 NC-6-19-17-30: P_6_19 + P_17_30 <= 1
 NC-6-19-18-30: P_6_19 + P_18_30 <= 1
 NC-6-20-7-25: P_6_20 + P_7_25 <= 1
 NC-6-20-7-28: P_6_20 + P_7_28 <= 1
 NC-6-20-7-30: P_6_20 + P_7_30 <= 1
 NC-6-20-8-21: P_6_20 + P_8_21 <= 1
 NC-6-20-8-22: P_6_20 + P_8_22 <= 1
 NC-6-20-8-23: P_6_20 + P_8_23 <= 1
 NC-6-20-8-24: P_6_20 + P_8_24 <= 1
 NC-6-20-8-26: P_6_20 + P_8_26 <= 1
 NC-6-20-8-27: P_6_20 + P_8_27 <= 1
 NC-6-20-8-29: P_6_20 + P_8_29 <= 1
 NC-6-20-9-21: P_6_20 + P_9_21 <= 1
 NC-6-20-9-24: P_6_20 + P_9_24 <= 1
 NC-6-20-9-27: P_6_20 + P_9_27 <= 1
 NC-6-20-10-30: P_6_20 + P_10_30 <= 1
 NC-6-20-11-25: P_6_20 + P_11_25 <= 1
 NC-6-20-11-28: P_6_20 + P_11_28 <= 1
 NC-6-20-11-30: P_6_20 + P_11_30 <= 1
 NC-6-20-12-25: P_6_20 + P_12_25 <= 1
 NC-6-20-12-28: P_6_20 + P_12_28 <= 1
 NC-6-20-12-30: P_6_20 + P_12_30 <= 1
 NC-6-20-13-21: P_6_20 + P_13_21 <= 1
 NC-6-20-13-22: P_6_20 + P_13_22 <= 1
 NC-6-20-13-23: P_6_20 + P_13_23 <= 1
 NC-6-20-13-24: P_6_20 + P_13_24 <= 1
 NC-6-20-13-26: P_6_20 + P_13_26 <= 1
 NC-6-20-13-27: P_6_20 + P_13_27 <= 1
 NC-6-20-13-29: P_6_20 + P_13_29 <= 1
 NC-6-20-14-21: P_6_20 + P_14_21 <= 1
 NC-6-20-14-24: P_6_20 + P_14_24 <= 1
 NC-6-20-14-27: P_6_20 + P_14_27 <= 1
 NC-6-20-15-21: P_6_20 + P_15_21 <= 1
 NC-6-20-15-24: P_6_20 + P_15_24 <= 1
 NC-6-20-15-27: P_6_20 + P_15_27 <= 1
 NC-6-20-16-25: P_6_20 + P_16_25 <= 1
 NC-6-20-16-28: P_6_20 + P_16_28 <= 1
 NC-6-20-16-30: P_6_20 + P_16_30 <= 1
 NC-6-20-17-25: P_6_20 + P_17_25 <= 1
 NC-6-20-17-28: P_6_20 + P_17_28 <= 1
 NC-6-20-17-30: P_6_20 + P_17_30 <= 1
 NC-6-20-18-30: P_6_20 + P_18_30 <= 1
 NC-6-20-19-30: P_6_20 + P_19_30 <= 1
 NC-6-21-7-25: P_6_21 + P_7_25 <= 1
 NC-6-21-7-28: P_6_21 + P_7_28 <= 1
 NC-6-21-7-30: P_6_21 + P_7_30 <= 1
 NC-6-21-8-22: P_6_21 + P_8_22 <= 1
 NC-6-21-8-23: P_6_21 + P_8_23 <= 1
 NC-6-21-8-24: P_6_21 + P_8_24 <= 1
 NC-6-21-8-26: P_6_21 + P_8_26 <= 1
 NC-6-21-8-27: P_6_21 + P_8_27 <= 1
 NC-6-21-8-29: P_6_21 + P_8_29 <= 1
 NC-6-21-9-24: P_6_21 + P_9_24 <= 1
 NC-6-21-9-27: P_6_21 + P_9_27 <= 1
 NC-6-21-10-30: P_6_21 + P_10_30 <= 1
 NC-6-21-11-25: P_6_21 + P_11_25 <= 1
 NC-6-21-11-28: P_6_21 + P_11_28 <= 1
 NC-6-21-11-30: P_6_21 + P_11_30 <= 1
 NC-6-21-12-25: P_6_21 + P_12_25 <= 1
 NC-6-21-12-28: P_6_21 + P_12_28 <= 1
 NC-6-21-12-30: P_6_21 + P_12_30 <= 1
 NC-6-21-13-22: P_6_21 + P_13_22 <= 1
 NC-6-21-13-23: P_6_21 + P_13_23 <= 1
 NC-6-21-13-24: P_6_21 + P_13_24 <= 1
 NC-6-21-13-26: P_6_21 + P_13_26 <= 1
 NC-6-21-13-27: P_6_21 + P_13_27 <= 1
 NC-6-21-13-29: P_6_21 + P_13_29 <= 1
 NC-6-21-14-24: P_6_21 + P_14_24 <= 1
 NC-6-21-14-27: P_6_21 + P_14_27 <= 1
 NC-6-21-15-24: P_6_21 + P_15_24 <= 1
 NC-6-21-15-27: P_6_21 + P_15_27 <= 1
 NC-6-21-16-25: P_6_21 + P_16_25 <= 1
 NC-6-21-16-28: P_6_21 + P_16_28 <= 1
 NC-6-21-16-30: P_6_21 + P_16_30 <= 1
 NC-6-21-17-25: P_6_21 + P_17_25 <= 1
 NC-6-21-17-28: P_6_21 + P_17_28 <= 1
 NC-6-21-17-30: P_6_21 + P_17_30 <= 1
 NC-6-21-18-30: P_6_21 + P_18_30 <= 1
 NC-6-21-19-30: P_6_21 + P_19_30 <= 1
 NC-6-21-20-25: P_6_21 + P_20_25 <= 1
 NC-6-21-20-28: P_6_21 + P_20_28 <= 1
 NC-6-21-20-30: P_6_21 + P_20_30 <= 1
 NC-6-22-7-25: P_6_22 + P_7_25 <= 1
 NC-6-22-7-28: P_6_22 + P_7_28 <= 1
 NC-6-22-7-30: P_6_22 + P_7_30 <= 1
 NC-6-22-8-23: P_6_22 + P_8_23 <= 1
 NC-6-22-8-24: P_6_22 + P_8_24 <= 1
 NC-6-22-8-26: P_6_22 + P_8_26 <= 1
 NC-6-22-8-27: P_6_22 + P_8_27 <= 1
 NC-6-22-8-29: P_6_22 + P_8_29 <= 1
 NC-6-22-9-24: P_6_22 + P_9_24 <= 1
 NC-6-22-9-27: P_6_22 + P_9_27 <= 1
 NC-6-22-10-30: P_6_22 + P_10_30 <= 1
 NC-6-22-11-25: P_6_22 + P_11_25 <= 1
 NC-6-22-11-28: P_6_22 + P_11_28 <= 1
 NC-6-22-11-30: P_6_22 + P_11_30 <= 1
 NC-6-22-12-25: P_6_22 + P_12_25 <= 1
 NC-6-22-12-28: P_6_22 + P_12_28 <= 1
 NC-6-22-12-30: P_6_22 + P_12_30 <= 1
 NC-6-22-13-23: P_6_22 + P_13_23 <= 1
 NC-6-22-13-24: P_6_22 + P_13_24 <= 1
 NC-6-22-13-26: P_6_22 + P_13_26 <= 1
 NC-6-22-13-27: P_6_22 + P_13_27 <= 1
 NC-6-22-13-29: P_6_22 + P_13_29 <= 1
 NC-6-22-14-24: P_6_22 + P_14_24 <= 1
 NC-6-22-14-27: P_6_22 + P_14_27 <= 1
 NC-6-22-15-24: P_6_22 + P_15_24 <= 1
 NC-6-22-15-27: P_6_22 + P_15_27 <= 1
 NC-6-22-16-25: P_6_22 + P_16_25 <= 1
 NC-6-22-16-28: P_6_22 + P_16_28 <= 1
 NC-6-22-16-30: P_6_22 + P_16_30 <= 1
 NC-6-22-17-25: P_6_22 + P_17_25 <= 1
 NC-6-22-17-28: P_6_22 + P_17_28 <= 1
 NC-6-22-17-30: P_6_22 + P_17_30 <= 1
 NC-6-22-18-30: P_6_22 + P_18_30 <= 1
 NC-6-22-19-30: P_6_22 + P_19_30 <= 1
 NC-6-22-20-25: P_6_22 + P_20_25 <= 1
 NC-6-22-20-28: P_6_22 + P_20_28 <= 1
 NC-6-22-20-30: P_6_22 + P_20_30 <= 1
 NC-6-22-21-25: P_6_22 + P_21_25 <= 1
 NC-6-22-21-28: P_6_22 + P_21_28 <= 1
 NC-6-22-21-30: P_6_22 + P_21_30 <= 1
 NC-6-23-7-25: P_6_23 + P_7_25 <= 1
 NC-6-23-7-28: P_6_23 + P_7_28 <= 1
 NC-6-23-7-30: P_6_23 + P_7_30 <= 1
 NC-6-23-8-24: P_6_23 + P_8_24 <= 1
 NC-6-23-8-26: P_6_23 + P_8_26 <= 1
 NC-6-23-8-27: P_6_23 + P_8_27 <= 1
 NC-6-23-8-29: P_6_23 + P_8_29 <= 1
 NC-6-23-9-24: P_6_23 + P_9_24 <= 1
 NC-6-23-9-27: P_6_23 + P_9_27 <= 1
 NC-6-23-10-30: P_6_23 + P_10_30 <= 1
 NC-6-23-11-25: P_6_23 + P_11_25 <= 1
 NC-6-23-11-28: P_6_23 + P_11_28 <= 1
 NC-6-23-11-30: P_6_23 + P_11_30 <= 1
 NC-6-23-12-25: P_6_23 + P_12_25 <= 1
 NC-6-23-12-28: P_6_23 + P_12_28 <= 1
 NC-6-23-12-30: P_6_23 + P_12_30 <= 1
 NC-6-23-13-24: P_6_23 + P_13_24 <= 1
 NC-6-23-13-26: P_6_23 + P_13_26 <= 1
 NC-6-23-13-27: P_6_23 + P_13_27 <= 1
 NC-6-23-13-29: P_6_23 + P_13_29 <= 1
 NC-6-23-14-24: P_6_23 + P_14_24 <= 1
 NC-6-23-14-27: P_6_23 + P_14_27 <= 1
 NC-6-23-15-24: P_6_23 + P_15_24 <= 1
 NC-6-23-15-27: P_6_23 + P_15_27 <= 1
 NC-6-23-16-25: P_6_23 + P_16_25 <= 1
 NC-6-23-16-28: P_6_23 + P_16_28 <= 1
 NC-6-23-16-30: P_6_23 + P_16_30 <= 1
 NC-6-23-17-25: P_6_23 + P_17_25 <= 1
 NC-6-23-17-28: P_6_23 + P_17_28 <= 1
 NC-6-23-17-30: P_6_23 + P_17_30 <= 1
 NC-6-23-18-30: P_6_23 + P_18_30 <= 1
 NC-6-23-19-30: P_6_23 + P_19_30 <= 1
 NC-6-23-20-25: P_6_23 + P_20_25 <= 1
 NC-6-23-20-28: P_6_23 + P_20_28 <= 1
 NC-6-23-20-30: P_6_23 + P_20_30 <= 1
 NC-6-23-21-25: P_6_23 + P_21_25 <= 1
 NC-6-23-21-28: P_6_23 + P_21_28 <= 1
 NC-6-23-21-30: P_6_23 + P_21_30 <= 1
 NC-6-23-22-30: P_6_23 + P_22_30 <= 1
 NC-6-24-7-25: P_6_24 + P_7_25 <= 1
 NC-6-24-7-28: P_6_24 + P_7_28 <= 1
 NC-6-24-7-30: P_6_24 + P_7_30 <= 1
 NC-6-24-8-26: P_6_24 + P_8_26 <= 1
 NC-6-24-8-27: P_6_24 + P_8_27 <= 1
 NC-6-24-8-29: P_6_24 + P_8_29 <= 1
 NC-6-24-9-27: P_6_24 + P_9_27 <= 1
 NC-6-24-10-30: P_6_24 + P_10_30 <= 1
 NC-6-24-11-25: P_6_24 + P_11_25 <= 1
 NC-6-24-11-28: P_6_24 + P_11_28 <= 1
 NC-6-24-11-30: P_6_24 + P_11_30 <= 1
 NC-6-24-12-25: P_6_24 + P_12_25 <= 1
 NC-6-24-12-28: P_6_24 + P_12_28 <= 1
 NC-6-24-12-30: P_6_24 + P_12_30 <= 1
 NC-6-24-13-26: P_6_24 + P_13_26 <= 1
 NC-6-24-13-27: P_6_24 + P_13_27 <= 1
 NC-6-24-13-29: P_6_24 + P_13_29 <= 1
 NC-6-24-14-27: P_6_24 + P_14_27 <= 1
 NC-6-24-15-27: P_6_24 + P_15_27 <= 1
 NC-6-24-16-25: P_6_24 + P_16_25 <= 1
 NC-6-24-16-28: P_6_24 + P_16_28 <= 1
 NC-6-24-16-30: P_6_24 + P_16_30 <= 1
 NC-6-24-17-25: P_6_24 + P_17_25 <= 1
 NC-6-24-17-28: P_6_24 + P_17_28 <= 1
 NC-6-24-17-30: P_6_24 + P_17_30 <= 1
 NC-6-24-18-30: P_6_24 + P_18_30 <= 1
 NC-6-24-19-30: P_6_24 + P_19_30 <= 1
 NC-6-24-20-25: P_6_24 + P_20_25 <= 1
 NC-6-24-20-28: P_6_24 + P_20_28 <= 1
 NC-6-24-20-30: P_6_24 + P_20_30 <= 1
 NC-6-24-21-25: P_6_24 + P_21_25 <= 1
 NC-6-24-21-28: P_6_24 + P_21_28 <= 1
 NC-6-24-21-30: P_6_24 + P_21_30 <= 1
 NC-6-24-22-30: P_6_24 + P_22_30 <= 1
 NC-6-24-23-30: P_6_24 + P_23_30 <= 1
 NC-6-26-7-28: P_6_26 + P_7_28 <= 1
 NC-6-26-7-30: P_6_26 + P_7_30 <= 1
 NC-6-26-8-27: P_6_26 + P_8_27 <= 1
 NC-6-26-8-29: P_6_26 + P_8_29 <= 1
 NC-6-26-9-27: P_6_26 + P_9_27 <= 1
 NC-6-26-10-30: P_6_26 + P_10_30 <= 1
 NC-6-26-11-28: P_6_26 + P_11_28 <= 1
 NC-6-26-11-30: P_6_26 + P_11_30 <= 1
 NC-6-26-12-28: P_6_26 + P_12_28 <= 1
 NC-6-26-12-30: P_6_26 + P_12_30 <= 1
 NC-6-26-13-27: P_6_26 + P_13_27 <= 1
 NC-6-26-13-29: P_6_26 + P_13_29 <= 1
 NC-6-26-14-27: P_6_26 + P_14_27 <= 1
 NC-6-26-15-27: P_6_26 + P_15_27 <= 1
 NC-6-26-16-28: P_6_26 + P_16_28 <= 1
 NC-6-26-16-30: P_6_26 + P_16_30 <= 1
 NC-6-26-17-28: P_6_26 + P_17_28 <= 1
 NC-6-26-17-30: P_6_26 + P_17_30 <= 1
 NC-6-26-18-30: P_6_26 + P_18_30 <= 1
 NC-6-26-19-30: P_6_26 + P_19_30 <= 1
 NC-6-26-20-28: P_6_26 + P_20_28 <= 1
 NC-6-26-20-30: P_6_26 + P_20_30 <= 1
 NC-6-26-21-28: P_6_26 + P_21_28 <= 1
 NC-6-26-21-30: P_6_26 + P_21_30 <= 1
 NC-6-26-22-30: P_6_26 + P_22_30 <= 1
 NC-6-26-23-30: P_6_26 + P_23_30 <= 1
 NC-6-26-24-28: P_6_26 + P_24_28 <= 1
 NC-6-26-24-30: P_6_26 + P_24_30 <= 1
 NC-6-27-7-28: P_6_27 + P_7_28 <= 1
 NC-6-27-7-30: P_6_27 + P_7_30 <= 1
 NC-6-27-8-29: P_6_27 + P_8_29 <= 1
 NC-6-27-10-30: P_6_27 + P_10_30 <= 1
 NC-6-27-11-28: P_6_27 + P_11_28 <= 1
 NC-6-27-11-30: P_6_27 + P_11_30 <= 1
 NC-6-27-12-28: P_6_27 + P_12_28 <= 1
 NC-6-27-12-30: P_6_27 + P_12_30 <= 1
 NC-6-27-13-29: P_6_27 + P_13_29 <= 1
 NC-6-27-16-28: P_6_27 + P_16_28 <= 1
 NC-6-27-16-30: P_6_27 + P_16_30 <= 1
 NC-6-27-17-28: P_6_27 + P_17_28 <= 1
 NC-6-27-17-30: P_6_27 + P_17_30 <= 1
 NC-6-27-18-30: P_6_27 + P_18_30 <= 1
 NC-6-27-19-30: P_6_27 + P_19_30 <= 1
 NC-6-27-20-28: P_6_27 + P_20_28 <= 1
 NC-6-27-20-30: P_6_27 + P_20_30 <= 1
 NC-6-27-21-28: P_6_27 + P_21_28 <= 1
 NC-6-27-21-30: P_6_27 + P_21_30 <= 1
 NC-6-27-22-30: P_6_27 + P_22_30 <= 1
 NC-6-27-23-30: P_6_27 + P_23_30 <= 1
 NC-6-27-24-28: P_6_27 + P_24_28 <= 1
 NC-6-27-24-30: P_6_27 + P_24_30 <= 1
 NC-6-27-26-30: P_6_27 + P_26_30 <= 1
 NC-6-29-7-30: P_6_29 + P_7_30 <= 1
 NC-6-29-10-30: P_6_29 + P_10_30 <= 1
 NC-6-29-11-30: P_6_29 + P_11_30 <= 1
 NC-6-29-12-30: P_6_29 + P_12_30 <= 1
 NC-6-29-16-30: P_6_29 + P_16_30 <= 1
 NC-6-29-17-30: P_6_29 + P_17_30 <= 1
 NC-6-29-18-30: P_6_29 + P_18_30 <= 1
 NC-6-29-19-30: P_6_29 + P_19_30 <= 1
 NC-6-29-20-30: P_6_29 + P_20_30 <= 1
 NC-6-29-21-30: P_6_29 + P_21_30 <= 1
 NC-6-29-22-30: P_6_29 + P_22_30 <= 1
 NC-6-29-23-30: P_6_29 + P_23_30 <= 1
 NC-6-29-24-30: P_6_29 + P_24_30 <= 1
 NC-6-29-26-30: P_6_29 + P_26_30 <= 1
 NC-7-13-8-16: P_7_13 + P_8_16 <= 1
 NC-7-13-8-17: P_7_13 + P_8_17 <= 1
 NC-7-13-8-18: P_7_13 + P_8_18 <= 1
 NC-7-13-8-19: P_7_13 + P_8_19 <= 1
 NC-7-13-8-20: P_7_13 + P_8_20 <= 1
 NC-7-13-8-21: P_7_13 + P_8_21 <= 1
 NC-7-13-8-22: P_7_13 + P_8_22 <= 1
 NC-7-13-8-23: P_7_13 + P_8_23 <= 1
 NC-7-13-8-24: P_7_13 + P_8_24 <= 1
 NC-7-13-8-26: P_7_13 + P_8_26 <= 1
 NC-7-13-8-27: P_7_13 + P_8_27 <= 1
 NC-7-13-8-29: P_7_13 + P_8_29 <= 1
 NC-7-13-9-16: P_7_13 + P_9_16 <= 1
 NC-7-13-9-17: P_7_13 + P_9_17 <= 1
 NC-7-13-9-20: P_7_13 + P_9_20 <= 1
 NC-7-13-9-21: P_7_13 + P_9_21 <= 1
 NC-7-13-9-24: P_7_13 + P_9_24 <= 1
 NC-7-13-9-27: P_7_13 + P_9_27 <= 1
 NC-7-13-10-30: P_7_13 + P_10_30 <= 1
 NC-7-13-11-15: P_7_13 + P_11_15 <= 1
 NC-7-13-11-25: P_7_13 + P_11_25 <= 1
 NC-7-13-11-28: P_7_13 + P_11_28 <= 1
 NC-7-13-11-30: P_7_13 + P_11_30 <= 1
 NC-7-13-12-25: P_7_13 + P_12_25 <= 1
 NC-7-13-12-28: P_7_13 + P_12_28 <= 1
 NC-7-13-12-30: P_7_13 + P_12_30 <= 1
 NC-7-14-8-16: P_7_14 + P_8_16 <= 1
 NC-7-14-8-17: P_7_14 + P_8_17 <= 1
 NC-7-14-8-18: P_7_14 + P_8_18 <= 1
 NC-7-14-8-19: P_7_14 + P_8_19 <= 1
 NC-7-14-8-20: P_7_14 + P_8_20 <= 1
 NC-7-14-8-21: P_7_14 + P_8_21 <= 1
 NC-7-14-8-22: P_7_14 + P_8_22 <= 1
 NC-7-14-8-23: P_7_14 + P_8_23 <= 1
 NC-7-14-8-24: P_7_14 + P_8_24 <= 1
 NC-7-14-8-26: P_7_14 + P_8_26 <= 1
 NC-7-14-8-27: P_7_14 + P_8_27 <= 1
 NC-7-14-8-29: P_7_14 + P_8_29 <= 1
 NC-7-14-9-16: P_7_14 + P_9_16 <= 1
 NC-7-14-9-17: P_7_14 + P_9_17 <= 1
 NC-7-14-9-20: P_7_14 + P_9_20 <= 1
 NC-7-14-9-21: P_7_14 + P_9_21 <= 1
 NC-7-14-9-24: P_7_14 + P_9_24 <= 1
 NC-7-14-9-27: P_7_14 + P_9_27 <= 1
 NC-7-14-10-30: P_7_14 + P_10_30 <= 1
 NC-7-14-11-15: P_7_14 + P_11_15 <= 1
 NC-7-14-11-25: P_7_14 + P_11_25 <= 1
 NC-7-14-11-28: P_7_14 + P_11_28 <= 1
 NC-7-14-11-30: P_7_14 + P_11_30 <= 1
 NC-7-14-12-25: P_7_14 + P_12_25 <= 1
 NC-7-14-12-28: P_7_14 + P_12_28 <= 1
 NC-7-14-12-30: P_7_14 + P_12_30 <= 1
 NC-7-14-13-17: P_7_14 + P_13_17 <= 1
 NC-7-14-13-18: P_7_14 + P_13_18 <= 1
 NC-7-14-13-19: P_7_14 + P_13_19 <= 1
 NC-7-14-13-20: P_7_14 + P_13_20 <= 1
 NC-7-14-13-21: P_7_14 + P_13_21 <= 1
 NC-7-14-13-22: P_7_14 + P_13_22 <= 1
 NC-7-14-13-23: P_7_14 + P_13_23 <= 1
 NC-7-14-13-24: P_7_14 + P_13_24 <= 1
 NC-7-14-13-26: P_7_14 + P_13_26 <= 1
 NC-7-14-13-27: P_7_14 + P_13_27 <= 1
 NC-7-14-13-29: P_7_14 + P_13_29 <= 1
 NC-7-15-8-16: P_7_15 + P_8_16 <= 1
 NC-7-15-8-17: P_7_15 + P_8_17 <= 1
 NC-7-15-8-18: P_7_15 + P_8_18 <= 1
 NC-7-15-8-19: P_7_15 + P_8_19 <= 1
 NC-7-15-8-20: P_7_15 + P_8_20 <= 1
 NC-7-15-8-21: P_7_15 + P_8_21 <= 1
 NC-7-15-8-22: P_7_15 + P_8_22 <= 1
 NC-7-15-8-23: P_7_15 + P_8_23 <= 1
 NC-7-15-8-24: P_7_15 + P_8_24 <= 1
 NC-7-15-8-26: P_7_15 + P_8_26 <= 1
 NC-7-15-8-27: P_7_15 + P_8_27 <= 1
 NC-7-15-8-29: P_7_15 + P_8_29 <= 1
 NC-7-15-9-16: P_7_15 + P_9_16 <= 1
 NC-7-15-9-17: P_7_15 + P_9_17 <= 1
 NC-7-15-9-20: P_7_15 + P_9_20 <= 1
 NC-7-15-9-21: P_7_15 + P_9_21 <= 1
 NC-7-15-9-24: P_7_15 + P_9_24 <= 1
 NC-7-15-9-27: P_7_15 + P_9_27 <= 1
 NC-7-15-10-30: P_7_15 + P_10_30 <= 1
 NC-7-15-11-25: P_7_15 + P_11_25 <= 1
 NC-7-15-11-28: P_7_15 + P_11_28 <= 1
 NC-7-15-11-30: P_7_15 + P_11_30 <= 1
 NC-7-15-12-25: P_7_15 + P_12_25 <= 1
 NC-7-15-12-28: P_7_15 + P_12_28 <= 1
 NC-7-15-12-30: P_7_15 + P_12_30 <= 1
 NC-7-15-13-17: P_7_15 + P_13_17 <= 1
 NC-7-15-13-18: P_7_15 + P_13_18 <= 1
 NC-7-15-13-19: P_7_15 + P_13_19 <= 1
 NC-7-15-13-20: P_7_15 + P_13_20 <= 1
 NC-7-15-13-21: P_7_15 + P_13_21 <= 1
 NC-7-15-13-22: P_7_15 + P_13_22 <= 1
 NC-7-15-13-23: P_7_15 + P_13_23 <= 1
 NC-7-15-13-24: P_7_15 + P_13_24 <= 1
 NC-7-15-13-26: P_7_15 + P_13_26 <= 1
 NC-7-15-13-27: P_7_15 + P_13_27 <= 1
 NC-7-15-13-29: P_7_15 + P_13_29 <= 1
 NC-7-15-14-20: P_7_15 + P_14_20 <= 1
 NC-7-15-14-21: P_7_15 + P_14_21 <= 1
 NC-7-15-14-24: P_7_15 + P_14_24 <= 1
 NC-7-15-14-27: P_7_15 + P_14_27 <= 1
 NC-7-25-8-26: P_7_25 + P_8_26 <= 1
 NC-7-25-8-27: P_7_25 + P_8_27 <= 1
 NC-7-25-8-29: P_7_25 + P_8_29 <= 1
 NC-7-25-9-27: P_7_25 + P_9_27 <= 1
 NC-7-25-10-30: P_7_25 + P_10_30 <= 1
 NC-7-25-11-28: P_7_25 + P_11_28 <= 1
 NC-7-25-11-30: P_7_25 + P_11_30 <= 1
 NC-7-25-12-28: P_7_25 + P_12_28 <= 1
 NC-7-25-12-30: P_7_25 + P_12_30 <= 1
 NC-7-25-13-26: P_7_25 + P_13_26 <= 1
 NC-7-25-13-27: P_7_25 + P_13_27 <= 1
 NC-7-25-13-29: P_7_25 + P_13_29 <= 1
 NC-7-25-14-27: P_7_25 + P_14_27 <= 1
 NC-7-25-15-27: P_7_25 + P_15_27 <= 1
 NC-7-25-16-28: P_7_25 + P_16_28 <= 1
 NC-7-25-16-30: P_7_25 + P_16_30 <= 1
 NC-7-25-17-28: P_7_25 + P_17_28 <= 1
 NC-7-25-17-30: P_7_25 + P_17_30 <= 1
 NC-7-25-18-30: P_7_25 + P_18_30 <= 1
 NC-7-25-19-30: P_7_25 + P_19_30 <= 1
 NC-7-25-20-28: P_7_25 + P_20_28 <= 1
 NC-7-25-20-30: P_7_25 + P_20_30 <= 1
 NC-7-25-21-28: P_7_25 + P_21_28 <= 1
 NC-7-25-21-30: P_7_25 + P_21_30 <= 1
 NC-7-25-22-30: P_7_25 + P_22_30 <= 1
 NC-7-25-23-30: P_7_25 + P_23_30 <= 1
 NC-7-25-24-28: P_7_25 + P_24_28 <= 1
 NC-7-25-24-30: P_7_25 + P_24_30 <= 1
 NC-7-28-8-29: P_7_28 + P_8_29 <= 1
 NC-7-28-10-30: P_7_28 + P_10_30 <= 1
 NC-7-28-11-30: P_7_28 + P_11_30 <= 1
 NC-7-28-12-30: P_7_28 + P_12_30 <= 1
 NC-7-28-13-29: P_7_28 + P_13_29 <= 1
 NC-7-28-16-30: P_7_28 + P_16_30 <= 1
 NC-7-28-17-30: P_7_28 + P_17_30 <= 1
 NC-7-28-18-30: P_7_28 + P_18_30 <= 1
 NC-7-28-19-30: P_7_28 + P_19_30 <= 1
 NC-7-28-20-30: P_7_28 + P_20_30 <= 1
 NC-7-28-21-30: P_7_28 + P_21_30 <= 1
 NC-7-28-22-30: P_7_28 + P_22_30 <= 1
 NC-7-28-23-30: P_7_28 + P_23_30 <= 1
 NC-7-28-24-30: P_7_28 + P_24_30 <= 1
 NC-7-28-26-30: P_7_28 + P_26_30 <= 1
 NC-8-12-9-16: P_8_12 + P_9_16 <= 1
 NC-8-12-9-17: P_8_12 + P_9_17 <= 1
 NC-8-12-9-20: P_8_12 + P_9_20 <= 1
 NC-8-12-9-21: P_8_12 + P_9_21 <= 1
 NC-8-12-9-24: P_8_12 + P_9_24 <= 1
 NC-8-12-9-27: P_8_12 + P_9_27 <= 1
 NC-8-12-10-30: P_8_12 + P_10_30 <= 1
 NC-8-12-11-15: P_8_12 + P_11_15 <= 1
 NC-8-12-11-25: P_8_12 + P_11_25 <= 1
 NC-8-12-11-28: P_8_12 + P_11_28 <= 1
 NC-8-12-11-30: P_8_12 + P_11_30 <= 1
 NC-8-16-9-17: P_8_16 + P_9_17 <= 1
 NC-8-16-9-20: P_8_16 + P_9_20 <= 1
 NC-8-16-9-21: P_8_16 + P_9_21 <= 1
 NC-8-16-9-24: P_8_16 + P_9_24 <= 1
 NC-8-16-9-27: P_8_16 + P_9_27 <= 1
 NC-8-16-10-30: P_8_16 + P_10_30 <= 1
 NC-8-16-11-25: P_8_16 + P_11_25 <= 1
 NC-8-16-11-28: P_8_16 + P_11_28 <= 1
 NC-8-16-11-30: P_8_16 + P_11_30 <= 1
 NC-8-16-12-25: P_8_16 + P_12_25 <= 1
 NC-8-16-12-28: P_8_16 + P_12_28 <= 1
 NC-8-16-12-30: P_8_16 + P_12_30 <= 1
 NC-8-16-13-17: P_8_16 + P_13_17 <= 1
 NC-8-16-13-18: P_8_16 + P_13_18 <= 1
 NC-8-16-13-19: P_8_16 + P_13_19 <= 1
 NC-8-16-13-20: P_8_16 + P_13_20 <= 1
 NC-8-16-13-21: P_8_16 + P_13_21 <= 1
 NC-8-16-13-22: P_8_16 + P_13_22 <= 1
 NC-8-16-13-23: P_8_16 + P_13_23 <= 1
 NC-8-16-13-24: P_8_16 + P_13_24 <= 1
 NC-8-16-13-26: P_8_16 + P_13_26 <= 1
 NC-8-16-13-27: P_8_16 + P_13_27 <= 1
 NC-8-16-13-29: P_8_16 + P_13_29 <= 1
 NC-8-16-14-20: P_8_16 + P_14_20 <= 1
 NC-8-16-14-21: P_8_16 + P_14_21 <= 1
 NC-8-16-14-24: P_8_16 + P_14_24 <= 1
 NC-8-16-14-27: P_8_16 + P_14_27 <= 1
 NC-8-16-15-20: P_8_16 + P_15_20 <= 1
 NC-8-16-15-21: P_8_16 + P_15_21 <= 1
 NC-8-16-15-24: P_8_16 + P_15_24 <= 1
 NC-8-16-15-27: P_8_16 + P_15_27 <= 1
 NC-8-17-9-20: P_8_17 + P_9_20 <= 1
 NC-8-17-9-21: P_8_17 + P_9_21 <= 1
 NC-8-17-9-24: P_8_17 + P_9_24 <= 1
 NC-8-17-9-27: P_8_17 + P_9_27 <= 1
 NC-8-17-10-30: P_8_17 + P_10_30 <= 1
 NC-8-17-11-25: P_8_17 + P_11_25 <= 1
 NC-8-17-11-28: P_8_17 + P_11_28 <= 1
 NC-8-17-11-30: P_8_17 + P_11_30 <= 1
 NC-8-17-12-25: P_8_17 + P_12_25 <= 1
 NC-8-17-12-28: P_8_17 + P_12_28 <= 1
 NC-8-17-12-30: P_8_17 + P_12_30 <= 1
 NC-8-17-13-18: P_8_17 + P_13_18 <= 1
 NC-8-17-13-19: P_8_17 + P_13_19 <= 1
 NC-8-17-13-20: P_8_17 + P_13_20 <= 1
 NC-8-17-13-21: P_8_17 + P_13_21 <= 1
 NC-8-17-13-22: P_8_17 + P_13_22 <= 1
 NC-8-17-13-23: P_8_17 + P_13_23 <= 1
 NC-8-17-13-24: P_8_17 + P_13_24 <= 1
 NC-8-17-13-26: P_8_17 + P_13_26 <= 1
 NC-8-17-13-27: P_8_17 + P_13_27 <= 1
 NC-8-17-13-29: P_8_17 + P_13_29 <= 1
 NC-8-17-14-20: P_8_17 + P_14_20 <= 1
 NC-8-17-14-21: P_8_17 + P_14_21 <= 1
 NC-8-17-14-24: P_8_17 + P_14_24 <= 1
 NC-8-17-14-27: P_8_17 + P_14_27 <= 1
 NC-8-17-15-20: P_8_17 + P_15_20 <= 1
 NC-8-17-15-21: P_8_17 + P_15_21 <= 1
 NC-8-17-15-24: P_8_17 + P_15_24 <= 1
 NC-8-17-15-27: P_8_17 + P_15_27 <= 1
 NC-8-17-16-25: P_8_17 + P_16_25 <= 1
 NC-8-17-16-28: P_8_17 + P_16_28 <= 1
 NC-8-17-16-30: P_8_17 + P_16_30 <= 1
 NC-8-18-9-20: P_8_18 + P_9_20 <= 1
 NC-8-18-9-21: P_8_18 + P_9_21 <= 1
 NC-8-18-9-24: P_8_18 + P_9_24 <= 1
 NC-8-18-9-27: P_8_18 + P_9_27 <= 1
 NC-8-18-10-30: P_8_18 + P_10_30 <= 1
 NC-8-18-11-25: P_8_18 + P_11_25 <= 1
 NC-8-18-11-28: P_8_18 + P_11_28 <= 1
 NC-8-18-11-30: P_8_18 + P_11_30 <= 1
 NC-8-18-12-25: P_8_18 + P_12_25 <= 1
 NC-8-18-12-28: P_8_18 + P_12_28 <= 1
 NC-8-18-12-30: P_8_18 + P_12_30 <= 1
 NC-8-18-13-19: P_8_18 + P_13_19 <= 1
 NC-8-18-13-20: P_8_18 + P_13_20 <= 1
 NC-8-18-13-21: P_8_18 + P_13_21 <= 1
 NC-8-18-13-22: P_8_18 + P_13_22 <= 1
 NC-8-18-13-23: P_8_18 + P_13_23 <= 1
 NC-8-18-13-24: P_8_18 + P_13_24 <= 1
 NC-8-18-13-26: P_8_18 + P_13_26 <= 1
 NC-8-18-13-27: P_8_18 + P_13_27 <= 1
 NC-8-18-13-29: P_8_18 + P_13_29 <= 1
 NC-8-18-14-20: P_8_18 + P_14_20 <= 1
 NC-8-18-14-21: P_8_18 + P_14_21 <= 1
 NC-8-18-14-24: P_8_18 + P_14_24 <= 1
 NC-8-18-14-27: P_8_18 + P_14_27 <= 1
 NC-8-18-15-20: P_8_18 + P_15_20 <= 1
 NC-8-18-15-21: P_8_18 + P_15_21 <= 1
 NC-8-18-15-24: P_8_18 + P_15_24 <= 1
 NC-8-18-15-27: P_8_18 + P_15_27 <= 1
 NC-8-18-16-25: P_8_18 + P_16_25 <= 1
 NC-8-18-16-28: P_8_18 + P_16_28 <= 1
 NC-8-18-16-30: P_8_18 + P_16_30 <= 1
 NC-8-18-17-25: P_8_18 + P_17_25 <= 1
 NC-8-18-17-28: P_8_18 + P_17_28 <= 1
 NC-8-18-17-30: P_8_18 + P_17_30 <= 1
 NC-8-19-9-20: P_8_19 + P_9_20 <= 1
 NC-8-19-9-21: P_8_19 + P_9_21 <= 1
 NC-8-19-9-24: P_8_19 + P_9_24 <= 1
 NC-8-19-9-27: P_8_19 + P_9_27 <= 1
 NC-8-19-10-30: P_8_19 + P_10_30 <= 1
 NC-8-19-11-25: P_8_19 + P_11_25 <= 1
 NC-8-19-11-28: P_8_19 + P_11_28 <= 1
 NC-8-19-11-30: P_8_19 + P_11_30 <= 1
 NC-8-19-12-25: P_8_19 + P_12_25 <= 1
 NC-8-19-12-28: P_8_19 + P_12_28 <= 1
 NC-8-19-12-30: P_8_19 + P_12_30 <= 1
 NC-8-19-13-20: P_8_19 + P_13_20 <= 1
 NC-8-19-13-21: P_8_19 + P_13_21 <= 1
 NC-8-19-13-22: P_8_19 + P_13_22 <= 1
 NC-8-19-13-23: P_8_19 + P_13_23 <= 1
 NC-8-19-13-24: P_8_19 + P_13_24 <= 1
 NC-8-19-13-26: P_8_19 + P_13_26 <= 1
 NC-8-19-13-27: P_8_19 + P_13_27 <= 1
 NC-8-19-13-29: P_8_19 + P_13_29 <= 1
 NC-8-19-14-20: P_8_19 + P_14_20 <= 1
 NC-8-19-14-21: P_8_19 + P_14_21 <= 1
 NC-8-19-14-24: P_8_19 + P_14_24 <= 1
 NC-8-19-14-27: P_8_19 + P_14_27 <= 1
 NC-8-19-15-20: P_8_19 + P_15_20 <= 1
 NC-8-19-15-21: P_8_19 + P_15_21 <= 1
 NC-8-19-15-24: P_8_19 + P_15_24 <= 1
 NC-8-19-15-27: P_8_19 + P_15_27 <= 1
 NC-8-19-16-25: P_8_19 + P_16_25 <= 1
 NC-8-19-16-28: P_8_19 + P_16_28 <= 1
 NC-8-19-16-30: P_8_19 + P_16_30 <= 1
 NC-8-19-17-25: P_8_19 + P_17_25 <= 1
 NC-8-19-17-28: P_8_19 + P_17_28 <= 1
 NC-8-19-17-30: P_8_19 + P_17_30 <= 1
 NC-8-19-18-30: P_8_19 + P_18_30 <= 1
 NC-8-20-9-21: P_8_20 + P_9_21 <= 1
 NC-8-20-9-24: P_8_20 + P_9_24 <= 1
 NC-8-20-9-27: P_8_20 + P_9_27 <= 1
 NC-8-20-10-30: P_8_20 + P_10_30 <= 1
 NC-8-20-11-25: P_8_20 + P_11_25 <= 1
 NC-8-20-11-28: P_8_20 + P_11_28 <= 1
 NC-8-20-11-30: P_8_20 + P_11_30 <= 1
 NC-8-20-12-25: P_8_20 + P_12_25 <= 1
 NC-8-20-12-28: P_8_20 + P_12_28 <= 1
 NC-8-20-12-30: P_8_20 + P_12_30 <= 1
 NC-8-20-13-21: P_8_20 + P_13_21 <= 1
 NC-8-20-13-22: P_8_20 + P_13_22 <= 1
 NC-8-20-13-23: P_8_20 + P_13_23 <= 1
 NC-8-20-13-24: P_8_20 + P_13_24 <= 1
 NC-8-20-13-26: P_8_20 + P_13_26 <= 1
 NC-8-20-13-27: P_8_20 + P_13_27 <= 1
 NC-8-20-13-29: P_8_20 + P_13_29 <= 1
 NC-8-20-14-21: P_8_20 + P_14_21 <= 1
 NC-8-20-14-24: P_8_20 + P_14_24 <= 1
 NC-8-20-14-27: P_8_20 + P_14_27 <= 1
 NC-8-20-15-21: P_8_20 + P_15_21 <= 1
 NC-8-20-15-24: P_8_20 + P_15_24 <= 1
 NC-8-20-15-27: P_8_20 + P_15_27 <= 1
 NC-8-20-16-25: P_8_20 + P_16_25 <= 1
 NC-8-20-16-28: P_8_20 + P_16_28 <= 1
 NC-8-20-16-30: P_8_20 + P_16_30 <= 1
 NC-8-20-17-25: P_8_20 + P_17_25 <= 1
 NC-8-20-17-28: P_8_20 + P_17_28 <= 1
 NC-8-20-17-30: P_8_20 + P_17_30 <= 1
 NC-8-20-18-30: P_8_20 + P_18_30 <= 1
 NC-8-20-19-30: P_8_20 + P_19_30 <= 1
 NC-8-21-9-24: P_8_21 + P_9_24 <= 1
 NC-8-21-9-27: P_8_21 + P_9_27 <= 1
 NC-8-21-10-30: P_8_21 + P_10_30 <= 1
 NC-8-21-11-25: P_8_21 + P_11_25 <= 1
 NC-8-21-11-28: P_8_21 + P_11_28 <= 1
 NC-8-21-11-30: P_8_21 + P_11_30 <= 1
 NC-8-21-12-25: P_8_21 + P_12_25 <= 1
 NC-8-21-12-28: P_8_21 + P_12_28 <= 1
 NC-8-21-12-30: P_8_21 + P_12_30 <= 1
 NC-8-21-13-22: P_8_21 + P_13_22 <= 1
 NC-8-21-13-23: P_8_21 + P_13_23 <= 1
 NC-8-21-13-24: P_8_21 + P_13_24 <= 1
 NC-8-21-13-26: P_8_21 + P_13_26 <= 1
 NC-8-21-13-27: P_8_21 + P_13_27 <= 1
 NC-8-21-13-29: P_8_21 + P_13_29 <= 1
 NC-8-21-14-24: P_8_21 + P_14_24 <= 1
 NC-8-21-14-27: P_8_21 + P_14_27 <= 1
 NC-8-21-15-24: P_8_21 + P_15_24 <= 1
 NC-8-21-15-27: P_8_21 + P_15_27 <= 1
 NC-8-21-16-25: P_8_21 + P_16_25 <= 1
 NC-8-21-16-28: P_8_21 + P_16_28 <= 1
 NC-8-21-16-30: P_8_21 + P_16_30 <= 1
 NC-8-21-17-25: P_8_21 + P_17_25 <= 1
 NC-8-21-17-28: P_8_21 + P_17_28 <= 1
 NC-8-21-17-30: P_8_21 + P_17_30 <= 1
 NC-8-21-18-30: P_8_21 + P_18_30 <= 1
 NC-8-21-19-30: P_8_21 + P_19_30 <= 1
 NC-8-21-20-25: P_8_21 + P_20_25 <= 1
 NC-8-21-20-28: P_8_21 + P_20_28 <= 1
 NC-8-21-20-30: P_8_21 + P_20_30 <= 1
 NC-8-22-9-24: P_8_22 + P_9_24 <= 1
 NC-8-22-9-27: P_8_22 + P_9_27 <= 1
 NC-8-22-10-30: P_8_22 + P_10_30 <= 1
 NC-8-22-11-25: P_8_22 + P_11_25 <= 1
 NC-8-22-11-28: P_8_22 + P_11_28 <= 1
 NC-8-22-11-30: P_8_22 + P_11_30 <= 1
 NC-8-22-12-25: P_8_22 + P_12_25 <= 1
 NC-8-22-12-28: P_8_22 + P_12_28 <= 1
 NC-8-22-12-30: P_8_22 + P_12_30 <= 1
 NC-8-22-13-23: P_8_22 + P_13_23 <= 1
 NC-8-22-13-24: P_8_22 + P_13_24 <= 1
 NC-8-22-13-26: P_8_22 + P_13_26 <= 1
 NC-8-22-13-27: P_8_22 + P_13_27 <= 1
 NC-8-22-13-29: P_8_22 + P_13_29 <= 1
 NC-8-22-14-24: P_8_22 + P_14_24 <= 1
 NC-8-22-14-27: P_8_22 + P_14_27 <= 1
 NC-8-22-15-24: P_8_22 + P_15_24 <= 1
 NC-8-22-15-27: P_8_22 + P_15_27 <= 1
 NC-8-22-16-25: P_8_22 + P_16_25 <= 1
 NC-8-22-16-28: P_8_22 + P_16_28 <= 1
 NC-8-22-16-30: P_8_22 + P_16_30 <= 1
 NC-8-22-17-25: P_8_22 + P_17_25 <= 1
 NC-8-22-17-28: P_8_22 + P_17_28 <= 1
 NC-8-22-17-30: P_8_22 + P_17_30 <= 1
 NC-8-22-18-30: P_8_22 + P_18_30 <= 1
 NC-8-22-19-30: P_8_22 + P_19_30 <= 1
 NC-8-22-20-25: P_8_22 + P_20_25 <= 1
 NC-8-22-20-28: P_8_22 + P_20_28 <= 1
 NC-8-22-20-30: P_8_22 + P_20_30 <= 1
 NC-8-22-21-25: P_8_22 + P_21_25 <= 1
 NC-8-22-21-28: P_8_22 + P_21_28 <= 1
 NC-8-22-21-30: P_8_22 + P_21_30 <= 1
 NC-8-23-9-24: P_8_23 + P_9_24 <= 1
 NC-8-23-9-27: P_8_23 + P_9_27 <= 1
 NC-8-23-10-30: P_8_23 + P_10_30 <= 1
 NC-8-23-11-25: P_8_23 + P_11_25 <= 1
 NC-8-23-11-28: P_8_23 + P_11_28 <= 1
 NC-8-23-11-30: P_8_23 + P_11_30 <= 1
 NC-8-23-12-25: P_8_23 + P_12_25 <= 1
 NC-8-23-12-28: P_8_23 + P_12_28 <= 1
 NC-8-23-12-30: P_8_23 + P_12_30 <= 1
 NC-8-23-13-24: P_8_23 + P_13_24 <= 1
 NC-8-23-13-26: P_8_23 + P_13_26 <= 1
 NC-8-23-13-27: P_8_23 + P_13_27 <= 1
 NC-8-23-13-29: P_8_23 + P_13_29 <= 1
 NC-8-23-14-24: P_8_23 + P_14_24 <= 1
 NC-8-23-14-27: P_8_23 + P_14_27 <= 1
 NC-8-23-15-24: P_8_23 + P_15_24 <= 1
 NC-8-23-15-27: P_8_23 + P_15_27 <= 1
 NC-8-23-16-25: P_8_23 + P_16_25 <= 1
 NC-8-23-16-28: P_8_23 + P_16_28 <= 1
 NC-8-23-16-30: P_8_23 + P_16_30 <= 1
 NC-8-23-17-25: P_8_23 + P_17_25 <= 1
 NC-8-23-17-28: P_8_23 + P_17_28 <= 1
 NC-8-23-17-30: P_8_23 + P_17_30 <= 1
 NC-8-23-18-30: P_8_23 + P_18_30 <= 1
 NC-8-23-19-30: P_8_23 + P_19_30 <= 1
 NC-8-23-20-25: P_8_23 + P_20_25 <= 1
 NC-8-23-20-28: P_8_23 + P_20_28 <= 1
 NC-8-23-20-30: P_8_23 + P_20_30 <= 1
 NC-8-23-21-25: P_8_23 + P_21_25 <= 1
 NC-8-23-21-28: P_8_23 + P_21_28 <= 1
 NC-8-23-21-30: P_8_23 + P_21_30 <= 1
 NC-8-23-22-30: P_8_23 + P_22_30 <= 1
 NC-8-24-9-27: P_8_24 + P_9_27 <= 1
 NC-8-24-10-30: P_8_24 + P_10_30 <= 1
 NC-8-24-11-25: P_8_24 + P_11_25 <= 1
 NC-8-24-11-28: P_8_24 + P_11_28 <= 1
 NC-8-24-11-30: P_8_24 + P_11_30 <= 1
 NC-8-24-12-25: P_8_24 + P_12_25 <= 1
 NC-8-24-12-28: P_8_24 + P_12_28 <= 1
 NC-8-24-12-30: P_8_24 + P_12_30 <= 1
 NC-8-24-13-26: P_8_24 + P_13_26 <= 1
 NC-8-24-13-27: P_8_24 + P_13_27 <= 1
 NC-8-24-13-29: P_8_24 + P_13_29 <= 1
 NC-8-24-14-27: P_8_24 + P_14_27 <= 1
 NC-8-24-15-27: P_8_24 + P_15_27 <= 1
 NC-8-24-16-25: P_8_24 + P_16_25 <= 1
 NC-8-24-16-28: P_8_24 + P_16_28 <= 1
 NC-8-24-16-30: P_8_24 + P_16_30 <= 1
 NC-8-24-17-25: P_8_24 + P_17_25 <= 1
 NC-8-24-17-28: P_8_24 + P_17_28 <= 1
 NC-8-24-17-30: P_8_24 + P_17_30 <= 1
 NC-8-24-18-30: P_8_24 + P_18_30 <= 1
 NC-8-24-19-30: P_8_24 + P_19_30 <= 1
 NC-8-24-20-25: P_8_24 + P_20_25 <= 1
 NC-8-24-20-28: P_8_24 + P_20_28 <= 1
 NC-8-24-20-30: P_8_24 + P_20_30 <= 1
 NC-8-24-21-25: P_8_24 + P_21_25 <= 1
 NC-8-24-21-28: P_8_24 + P_21_28 <= 1
 NC-8-24-21-30: P_8_24 + P_21_30 <= 1
 NC-8-24-22-30: P_8_24 + P_22_30 <= 1
 NC-8-24-23-30: P_8_24 + P_23_30 <= 1
 NC-8-26-9-27: P_8_26 + P_9_27 <= 1
 NC-8-26-10-30: P_8_26 + P_10_30 <= 1
 NC-8-26-11-28: P_8_26 + P_11_28 <= 1
 NC-8-26-11-30: P_8_26 + P_11_30 <= 1
 NC-8-26-12-28: P_8_26 + P_12_28 <= 1
 NC-8-26-12-30: P_8_26 + P_12_30 <= 1
 NC-8-26-13-27: P_8_26 + P_13_27 <= 1
 NC-8-26-13-29: P_8_26 + P_13_29 <= 1
 NC-8-26-14-27: P_8_26 + P_14_27 <= 1
 NC-8-26-15-27: P_8_26 + P_15_27 <= 1
 NC-8-26-16-28: P_8_26 + P_16_28 <= 1
 NC-8-26-16-30: P_8_26 + P_16_30 <= 1
 NC-8-26-17-28: P_8_26 + P_17_28 <= 1
 NC-8-26-17-30: P_8_26 + P_17_30 <= 1
 NC-8-26-18-30: P_8_26 + P_18_30 <= 1
 NC-8-26-19-30: P_8_26 + P_19_30 <= 1
 NC-8-26-20-28: P_8_26 + P_20_28 <= 1
 NC-8-26-20-30: P_8_26 + P_20_30 <= 1
 NC-8-26-21-28: P_8_26 + P_21_28 <= 1
 NC-8-26-21-30: P_8_26 + P_21_30 <= 1
 NC-8-26-22-30: P_8_26 + P_22_30 <= 1
 NC-8-26-23-30: P_8_26 + P_23_30 <= 1
 NC-8-26-24-28: P_8_26 + P_24_28 <= 1
 NC-8-26-24-30: P_8_26 + P_24_30 <= 1
 NC-8-27-10-30: P_8_27 + P_10_30 <= 1
 NC-8-27-11-28: P_8_27 + P_11_28 <= 1
 NC-8-27-11-30: P_8_27 + P_11_30 <= 1
 NC-8-27-12-28: P_8_27 + P_12_28 <= 1
 NC-8-27-12-30: P_8_27 + P_12_30 <= 1
 NC-8-27-13-29: P_8_27 + P_13_29 <= 1
 NC-8-27-16-28: P_8_27 + P_16_28 <= 1
 NC-8-27-16-30: P_8_27 + P_16_30 <= 1
 NC-8-27-17-28: P_8_27 + P_17_28 <= 1
 NC-8-27-17-30: P_8_27 + P_17_30 <= 1
 NC-8-27-18-30: P_8_27 + P_18_30 <= 1
 NC-8-27-19-30: P_8_27 + P_19_30 <= 1
 NC-8-27-20-28: P_8_27 + P_20_28 <= 1
 NC-8-27-20-30: P_8_27 + P_20_30 <= 1
 NC-8-27-21-28: P_8_27 + P_21_28 <= 1
 NC-8-27-21-30: P_8_27 + P_21_30 <= 1
 NC-8-27-22-30: P_8_27 + P_22_30 <= 1
 NC-8-27-23-30: P_8_27 + P_23_30 <= 1
 NC-8-27-24-28: P_8_27 + P_24_28 <= 1
 NC-8-27-24-30: P_8_27 + P_24_30 <= 1
 NC-8-27-26-30: P_8_27 + P_26_30 <= 1
 NC-8-29-10-30: P_8_29 + P_10_30 <= 1
 NC-8-29-11-30: P_8_29 + P_11_30 <= 1
 NC-8-29-12-30: P_8_29 + P_12_30 <= 1
 NC-8-29-16-30: P_8_29 + P_16_30 <= 1
 NC-8-29-17-30: P_8_29 + P_17_30 <= 1
 NC-8-29-18-30: P_8_29 + P_18_30 <= 1
 NC-8-29-19-30: P_8_29 + P_19_30 <= 1
 NC-8-29-20-30: P_8_29 + P_20_30 <= 1
 NC-8-29-21-30: P_8_29 + P_21_30 <= 1
 NC-8-29-22-30: P_8_29 + P_22_30 <= 1
 NC-8-29-23-30: P_8_29 + P_23_30 <= 1
 NC-8-29-24-30: P_8_29 + P_24_30 <= 1
 NC-8-29-26-30: P_8_29 + P_26_30 <= 1
 NC-9-16-10-30: P_9_16 + P_10_30 <= 1
 NC-9-16-11-25: P_9_16 + P_11_25 <= 1
 NC-9-16-11-28: P_9_16 + P_11_28 <= 1
 NC-9-16-11-30: P_9_16 + P_11_30 <= 1
 NC-9-16-12-25: P_9_16 + P_12_25 <= 1
 NC-9-16-12-28: P_9_16 + P_12_28 <= 1
 NC-9-16-12-30: P_9_16 + P_12_30 <= 1
 NC-9-16-13-17: P_9_16 + P_13_17 <= 1
 NC-9-16-13-18: P_9_16 + P_13_18 <= 1
 NC-9-16-13-19: P_9_16 + P_13_19 <= 1
 NC-9-16-13-20: P_9_16 + P_13_20 <= 1
 NC-9-16-13-21: P_9_16 + P_13_21 <= 1
 NC-9-16-13-22: P_9_16 + P_13_22 <= 1
 NC-9-16-13-23: P_9_16 + P_13_23 <= 1
 NC-9-16-13-24: P_9_16 + P_13_24 <= 1
 NC-9-16-13-26: P_9_16 + P_13_26 <= 1
 NC-9-16-13-27: P_9_16 + P_13_27 <= 1
 NC-9-16-13-29: P_9_16 + P_13_29 <= 1
 NC-9-16-14-20: P_9_16 + P_14_20 <= 1
 NC-9-16-14-21: P_9_16 + P_14_21 <= 1
 NC-9-16-14-24: P_9_16 + P_14_24 <= 1
 NC-9-16-14-27: P_9_16 + P_14_27 <= 1
 NC-9-16-15-20: P_9_16 + P_15_20 <= 1
 NC-9-16-15-21: P_9_16 + P_15_21 <= 1
 NC-9-16-15-24: P_9_16 + P_15_24 <= 1
 NC-9-16-15-27: P_9_16 + P_15_27 <= 1
 NC-9-17-10-30: P_9_17 + P_10_30 <= 1
 NC-9-17-11-25: P_9_17 + P_11_25 <= 1
 NC-9-17-11-28: P_9_17 + P_11_28 <= 1
 NC-9-17-11-30: P_9_17 + P_11_30 <= 1
 NC-9-17-12-25: P_9_17 + P_12_25 <= 1
 NC-9-17-12-28: P_9_17 + P_12_28 <= 1
 NC-9-17-12-30: P_9_17 + P_12_30 <= 1
 NC-9-17-13-18: P_9_17 + P_13_18 <= 1
 NC-9-17-13-19: P_9_17 + P_13_19 <= 1
 NC-9-17-13-20: P_9_17 + P_13_20 <= 1
 NC-9-17-13-21: P_9_17 + P_13_21 <= 1
 NC-9-17-13-22: P_9_17 + P_13_22 <= 1
 NC-9-17-13-23: P_9_17 + P_13_23 <= 1
 NC-9-17-13-24: P_9_17 + P_13_24 <= 1
 NC-9-17-13-26: P_9_17 + P_13_26 <= 1
 NC-9-17-13-27: P_9_17 + P_13_27 <= 1
 NC-9-17-13-29: P_9_17 + P_13_29 <= 1
 NC-9-17-14-20: P_9_17 + P_14_20 <= 1
 NC-9-17-14-21: P_9_17 + P_14_21 <= 1
 NC-9-17-14-24: P_9_17 + P_14_24 <= 1
 NC-9-17-14-27: P_9_17 + P_14_27 <= 1
 NC-9-17-15-20: P_9_17 + P_15_20 <= 1
 NC-9-17-15-21: P_9_17 + P_15_21 <= 1
 NC-9-17-15-24: P_9_17 + P_15_24 <= 1
 NC-9-17-15-27: P_9_17 + P_15_27 <= 1
 NC-9-17-16-25: P_9_17 + P_16_25 <= 1
 NC-9-17-16-28: P_9_17 + P_16_28 <= 1
 NC-9-17-16-30: P_9_17 + P_16_30 <= 1
 NC-9-20-10-30: P_9_20 + P_10_30 <= 1
 NC-9-20-11-25: P_9_20 + P_11_25 <= 1
 NC-9-20-11-28: P_9_20 + P_11_28 <= 1
 NC-9-20-11-30: P_9_20 + P_11_30 <= 1
 NC-9-20-12-25: P_9_20 + P_12_25 <= 1
 NC-9-20-12-28: P_9_20 + P_12_28 <= 1
 NC-9-20-12-30: P_9_20 + P_12_30 <= 1
 NC-9-20-13-21: P_9_20 + P_13_21 <= 1
 NC-9-20-13-22: P_9_20 + P_13_22 <= 1
 NC-9-20-13-23: P_9_20 + P_13_23 <= 1
 NC-9-20-13-24: P_9_20 + P_13_24 <= 1
 NC-9-20-13-26: P_9_20 + P_13_26 <= 1
 NC-9-20-13-27: P_9_20 + P_13_27 <= 1
 NC-9-20-13-29: P_9_20 + P_13_29 <= 1
 NC-9-20-14-21: P_9_20 + P_14_21 <= 1
 NC-9-20-14-24: P_9_20 + P_14_24 <= 1
 NC-9-20-14-27: P_9_20 + P_14_27 <= 1
 NC-9-20-15-21: P_9_20 + P_15_21 <= 1
 NC-9-20-15-24: P_9_20 + P_15_24 <= 1
 NC-9-20-15-27: P_9_20 + P_15_27 <= 1
 NC-9-20-16-25: P_9_20 + P_16_25 <= 1
 NC-9-20-16-28: P_9_20 + P_16_28 <= 1
 NC-9-20-16-30: P_9_20 + P_16_30 <= 1
 NC-9-20-17-25: P_9_20 + P_17_25 <= 1
 NC-9-20-17-28: P_9_20 + P_17_28 <= 1
 NC-9-20-17-30: P_9_20 + P_17_30 <= 1
 NC-9-20-18-30: P_9_20 + P_18_30 <= 1
 NC-9-20-19-30: P_9_20 + P_19_30 <= 1
 NC-9-21-10-30: P_9_21 + P_10_30 <= 1
 NC-9-21-11-25: P_9_21 + P_11_25 <= 1
 NC-9-21-11-28: P_9_21 + P_11_28 <= 1
 NC-9-21-11-30: P_9_21 + P_11_30 <= 1
 NC-9-21-12-25: P_9_21 + P_12_25 <= 1
 NC-9-21-12-28: P_9_21 + P_12_28 <= 1
 NC-9-21-12-30: P_9_21 + P_12_30 <= 1
 NC-9-21-13-22: P_9_21 + P_13_22 <= 1
 NC-9-21-13-23: P_9_21 + P_13_23 <= 1
 NC-9-21-13-24: P_9_21 + P_13_24 <= 1
 NC-9-21-13-26: P_9_21 + P_13_26 <= 1
 NC-9-21-13-27: P_9_21 + P_13_27 <= 1
 NC-9-21-13-29: P_9_21 + P_13_29 <= 1
 NC-9-21-14-24: P_9_21 + P_14_24 <= 1
 NC-9-21-14-27: P_9_21 + P_14_27 <= 1
 NC-9-21-15-24: P_9_21 + P_15_24 <= 1
 NC-9-21-15-27: P_9_21 + P_15_27 <= 1
 NC-9-21-16-25: P_9_21 + P_16_25 <= 1
 NC-9-21-16-28: P_9_21 + P_16_28 <= 1
 NC-9-21-16-30: P_9_21 + P_16_30 <= 1
 NC-9-21-17-25: P_9_21 + P_17_25 <= 1
 NC-9-21-17-28: P_9_21 + P_17_28 <= 1
 NC-9-21-17-30: P_9_21 + P_17_30 <= 1
 NC-9-21-18-30: P_9_21 + P_18_30 <= 1
 NC-9-21-19-30: P_9_21 + P_19_30 <= 1
 NC-9-21-20-25: P_9_21 + P_20_25 <= 1
 NC-9-21-20-28: P_9_21 + P_20_28 <= 1
 NC-9-21-20-30: P_9_21 + P_20_30 <= 1
 NC-9-24-10-30: P_9_24 + P_10_30 <= 1
 NC-9-24-11-25: P_9_24 + P_11_25 <= 1
 NC-9-24-11-28: P_9_24 + P_11_28 <= 1
 NC-9-24-11-30: P_9_24 + P_11_30 <= 1
 NC-9-24-12-25: P_9_24 + P_12_25 <= 1
 NC-9-24-12-28: P_9_24 + P_12_28 <= 1
 NC-9-24-12-30: P_9_24 + P_12_30 <= 1
 NC-9-24-13-26: P_9_24 + P_13_26 <= 1
 NC-9-24-13-27: P_9_24 + P_13_27 <= 1
 NC-9-24-13-29: P_9_24 + P_13_29 <= 1
 NC-9-24-14-27: P_9_24 + P_14_27 <= 1
 NC-9-24-15-27: P_9_24 + P_15_27 <= 1
 NC-9-24-16-25: P_9_24 + P_16_25 <= 1
 NC-9-24-16-28: P_9_24 + P_16_28 <= 1
 NC-9-24-16-30: P_9_24 + P_16_30 <= 1
 NC-9-24-17-25: P_9_24 + P_17_25 <= 1
 NC-9-24-17-28: P_9_24 + P_17_28 <= 1
 NC-9-24-17-30: P_9_24 + P_17_30 <= 1
 NC-9-24-18-30: P_9_24 + P_18_30 <= 1
 NC-9-24-19-30: P_9_24 + P_19_30 <= 1
 NC-9-24-20-25: P_9_24 + P_20_25 <= 1
 NC-9-24-20-28: P_9_24 + P_20_28 <= 1
 NC-9-24-20-30: P_9_24 + P_20_30 <= 1
 NC-9-24-21-25: P_9_24 + P_21_25 <= 1
 NC-9-24-21-28: P_9_24 + P_21_28 <= 1
 NC-9-24-21-30: P_9_24 + P_21_30 <= 1
 NC-9-24-22-30: P_9_24 + P_22_30 <= 1
 NC-9-24-23-30: P_9_24 + P_23_30 <= 1
 NC-9-27-10-30: P_9_27 + P_10_30 <= 1
 NC-9-27-11-28: P_9_27 + P_11_28 <= 1
 NC-9-27-11-30: P_9_27 + P_11_30 <= 1
 NC-9-27-12-28: P_9_27 + P_12_28 <= 1
 NC-9-27-12-30: P_9_27 + P_12_30 <= 1
 NC-9-27-13-29: P_9_27 + P_13_29 <= 1
 NC-9-27-16-28: P_9_27 + P_16_28 <= 1
 NC-9-27-16-30: P_9_27 + P_16_30 <= 1
 NC-9-27-17-28: P_9_27 + P_17_28 <= 1
 NC-9-27-17-30: P_9_27 + P_17_30 <= 1
 NC-9-27-18-30: P_9_27 + P_18_30 <= 1
 NC-9-27-19-30: P_9_27 + P_19_30 <= 1
 NC-9-27-20-28: P_9_27 + P_20_28 <= 1
 NC-9-27-20-30: P_9_27 + P_20_30 <= 1
 NC-9-27-21-28: P_9_27 + P_21_28 <= 1
 NC-9-27-21-30: P_9_27 + P_21_30 <= 1
 NC-9-27-22-30: P_9_27 + P_22_30 <= 1
 NC-9-27-23-30: P_9_27 + P_23_30 <= 1
 NC-9-27-24-28: P_9_27 + P_24_28 <= 1
 NC-9-27-24-30: P_9_27 + P_24_30 <= 1
 NC-9-27-26-30: P_9_27 + P_26_30 <= 1
 NC-11-15-12-25: P_11_15 + P_12_25 <= 1
 NC-11-15-12-28: P_11_15 + P_12_28 <= 1
 NC-11-15-12-30: P_11_15 + P_12_30 <= 1
 NC-11-15-13-17: P_11_15 + P_13_17 <= 1
 NC-11-15-13-18: P_11_15 + P_13_18 <= 1
 NC-11-15-13-19: P_11_15 + P_13_19 <= 1
 NC-11-15-13-20: P_11_15 + P_13_20 <= 1
 NC-11-15-13-21: P_11_15 + P_13_21 <= 1
 NC-11-15-13-22: P_11_15 + P_13_22 <= 1
 NC-11-15-13-23: P_11_15 + P_13_23 <= 1
 NC-11-15-13-24: P_11_15 + P_13_24 <= 1
 NC-11-15-13-26: P_11_15 + P_13_26 <= 1
 NC-11-15-13-27: P_11_15 + P_13_27 <= 1
 NC-11-15-13-29: P_11_15 + P_13_29 <= 1
 NC-11-15-14-20: P_11_15 + P_14_20 <= 1
 NC-11-15-14-21: P_11_15 + P_14_21 <= 1
 NC-11-15-14-24: P_11_15 + P_14_24 <= 1
 NC-11-15-14-27: P_11_15 + P_14_27 <= 1
 NC-11-25-12-28: P_11_25 + P_12_28 <= 1
 NC-11-25-12-30: P_11_25 + P_12_30 <= 1
 NC-11-25-13-26: P_11_25 + P_13_26 <= 1
 NC-11-25-13-27: P_11_25 + P_13_27 <= 1
 NC-11-25-13-29: P_11_25 + P_13_29 <= 1
 NC-11-25-14-27: P_11_25 + P_14_27 <= 1
 NC-11-25-15-27: P_11_25 + P_15_27 <= 1
 NC-11-25-16-28: P_11_25 + P_16_28 <= 1
 NC-11-25-16-30: P_11_25 + P_16_30 <= 1
 NC-11-25-17-28: P_11_25 + P_17_28 <= 1
 NC-11-25-17-30: P_11_25 + P_17_30 <= 1
 NC-11-25-18-30: P_11_25 + P_18_30 <= 1
 NC-11-25-19-30: P_11_25 + P_19_30 <= 1
 NC-11-25-20-28: P_11_25 + P_20_28 <= 1
 NC-11-25-20-30: P_11_25 + P_20_30 <= 1
 NC-11-25-21-28: P_11_25 + P_21_28 <= 1
 NC-11-25-21-30: P_11_25 + P_21_30 <= 1
 NC-11-25-22-30: P_11_25 + P_22_30 <= 1
 NC-11-25-23-30: P_11_25 + P_23_30 <= 1
 NC-11-25-24-28: P_11_25 + P_24_28 <= 1
 NC-11-25-24-30: P_11_25 + P_24_30 <= 1
 NC-11-28-12-30: P_11_28 + P_12_30 <= 1
 NC-11-28-13-29: P_11_28 + P_13_29 <= 1
 NC-11-28-16-30: P_11_28 + P_16_30 <= 1
 NC-11-28-17-30: P_11_28 + P_17_30 <= 1
 NC-11-28-18-30: P_11_28 + P_18_30 <= 1
 NC-11-28-19-30: P_11_28 + P_19_30 <= 1
 NC-11-28-20-30: P_11_28 + P_20_30 <= 1
 NC-11-28-21-30: P_11_28 + P_21_30 <= 1
 NC-11-28-22-30: P_11_28 + P_22_30 <= 1
 NC-11-28-23-30: P_11_28 + P_23_30 <= 1
 NC-11-28-24-30: P_11_28 + P_24_30 <= 1
 NC-11-28-26-30: P_11_28 + P_26_30 <= 1
 NC-12-25-13-26: P_12_25 + P_13_26 <= 1
 NC-12-25-13-27: P_12_25 + P_13_27 <= 1
 NC-12-25-13-29: P_12_25 + P_13_29 <= 1
 NC-12-25-14-27: P_12_25 + P_14_27 <= 1
 NC-12-25-15-27: P_12_25 + P_15_27 <= 1
 NC-12-25-16-28: P_12_25 + P_16_28 <= 1
 NC-12-25-16-30: P_12_25 + P_16_30 <= 1
 NC-12-25-17-28: P_12_25 + P_17_28 <= 1
 NC-12-25-17-30: P_12_25 + P_17_30 <= 1
 NC-12-25-18-30: P_12_25 + P_18_30 <= 1
 NC-12-25-19-30: P_12_25 + P_19_30 <= 1
 NC-12-25-20-28: P_12_25 + P_20_28 <= 1
 NC-12-25-20-30: P_12_25 + P_20_30 <= 1
 NC-12-25-21-28: P_12_25 + P_21_28 <= 1
 NC-12-25-21-30: P_12_25 + P_21_30 <= 1
 NC-12-25-22-30: P_12_25 + P_22_30 <= 1
 NC-12-25-23-30: P_12_25 + P_23_30 <= 1
 NC-12-25-24-28: P_12_25 + P_24_28 <= 1
 NC-12-25-24-30: P_12_25 + P_24_30 <= 1
 NC-12-28-13-29: P_12_28 + P_13_29 <= 1
 NC-12-28-16-30: P_12_28 + P_16_30 <= 1
 NC-12-28-17-30: P_12_28 + P_17_30 <= 1
 NC-12-28-18-30: P_12_28 + P_18_30 <= 1
 NC-12-28-19-30: P_12_28 + P_19_30 <= 1
 NC-12-28-20-30: P_12_28 + P_20_30 <= 1
 NC-12-28-21-30: P_12_28 + P_21_30 <= 1
 NC-12-28-22-30: P_12_28 + P_22_30 <= 1
 NC-12-28-23-30: P_12_28 + P_23_30 <= 1
 NC-12-28-24-30: P_12_28 + P_24_30 <= 1
 NC-12-28-26-30: P_12_28 + P_26_30 <= 1
 NC-13-17-14-20: P_13_17 + P_14_20 <= 1
 NC-13-17-14-21: P_13_17 + P_14_21 <= 1
 NC-13-17-14-24: P_13_17 + P_14_24 <= 1
 NC-13-17-14-27: P_13_17 + P_14_27 <= 1
 NC-13-17-15-20: P_13_17 + P_15_20 <= 1
 NC-13-17-15-21: P_13_17 + P_15_21 <= 1
 NC-13-17-15-24: P_13_17 + P_15_24 <= 1
 NC-13-17-15-27: P_13_17 + P_15_27 <= 1
 NC-13-17-16-25: P_13_17 + P_16_25 <= 1
 NC-13-17-16-28: P_13_17 + P_16_28 <= 1
 NC-13-17-16-30: P_13_17 + P_16_30 <= 1
 NC-13-18-14-20: P_13_18 + P_14_20 <= 1
 NC-13-18-14-21: P_13_18 + P_14_21 <= 1
 NC-13-18-14-24: P_13_18 + P_14_24 <= 1
 NC-13-18-14-27: P_13_18 + P_14_27 <= 1
 NC-13-18-15-20: P_13_18 + P_15_20 <= 1
 NC-13-18-15-21: P_13_18 + P_15_21 <= 1
 NC-13-18-15-24: P_13_18 + P_15_24 <= 1
 NC-13-18-15-27: P_13_18 + P_15_27 <= 1
 NC-13-18-16-25: P_13_18 + P_16_25 <= 1
 NC-13-18-16-28: P_13_18 + P_16_28 <= 1
 NC-13-18-16-30: P_13_18 + P_16_30 <= 1
 NC-13-18-17-25: P_13_18 + P_17_25 <= 1
 NC-13-18-17-28: P_13_18 + P_17_28 <= 1
 NC-13-18-17-30: P_13_18 + P_17_30 <= 1
 NC-13-19-14-20: P_13_19 + P_14_20 <= 1
 NC-13-19-14-21: P_13_19 + P_14_21 <= 1
 NC-13-19-14-24: P_13_19 + P_14_24 <= 1
 NC-13-19-14-27: P_13_19 + P_14_27 <= 1
 NC-13-19-15-20: P_13_19 + P_15_20 <= 1
 NC-13-19-15-21: P_13_19 + P_15_21 <= 1
 NC-13-19-15-24: P_13_19 + P_15_24 <= 1
 NC-13-19-15-27: P_13_19 + P_15_27 <= 1
 NC-13-19-16-25: P_13_19 + P_16_25 <= 1
 NC-13-19-16-28: P_13_19 + P_16_28 <= 1
 NC-13-19-16-30: P_13_19 + P_16_30 <= 1
 NC-13-19-17-25: P_13_19 + P_17_25 <= 1
 NC-13-19-17-28: P_13_19 + P_17_28 <= 1
 NC-13-19-17-30: P_13_19 + P_17_30 <= 1
 NC-13-19-18-30: P_13_19 + P_18_30 <= 1
 NC-13-20-14-21: P_13_20 + P_14_21 <= 1
 NC-13-20-14-24: P_13_20 + P_14_24 <= 1
 NC-13-20-14-27: P_13_20 + P_14_27 <= 1
 NC-13-20-15-21: P_13_20 + P_15_21 <= 1
 NC-13-20-15-24: P_13_20 + P_15_24 <= 1
 NC-13-20-15-27: P_13_20 + P_15_27 <= 1
 NC-13-20-16-25: P_13_20 + P_16_25 <= 1
 NC-13-20-16-28: P_13_20 + P_16_28 <= 1
 NC-13-20-16-30: P_13_20 + P_16_30 <= 1
 NC-13-20-17-25: P_13_20 + P_17_25 <= 1
 NC-13-20-17-28: P_13_20 + P_17_28 <= 1
 NC-13-20-17-30: P_13_20 + P_17_30 <= 1
 NC-13-20-18-30: P_13_20 + P_18_30 <= 1
 NC-13-20-19-30: P_13_20 + P_19_30 <= 1
 NC-13-21-14-24: P_13_21 + P_14_24 <= 1
 NC-13-21-14-27: P_13_21 + P_14_27 <= 1
 NC-13-21-15-24: P_13_21 + P_15_24 <= 1
 NC-13-21-15-27: P_13_21 + P_15_27 <= 1
 NC-13-21-16-25: P_13_21 + P_16_25 <= 1
 NC-13-21-16-28: P_13_21 + P_16_28 <= 1
 NC-13-21-16-30: P_13_21 + P_16_30 <= 1
 NC-13-21-17-25: P_13_21 + P_17_25 <= 1
 NC-13-21-17-28: P_13_21 + P_17_28 <= 1
 NC-13-21-17-30: P_13_21 + P_17_30 <= 1
 NC-13-21-18-30: P_13_21 + P_18_30 <= 1
 NC-13-21-19-30: P_13_21 + P_19_30 <= 1
 NC-13-21-20-25: P_13_21 + P_20_25 <= 1
 NC-13-21-20-28: P_13_21 + P_20_28 <= 1
 NC-13-21-20-30: P_13_21 + P_20_30 <= 1
 NC-13-22-14-24: P_13_22 + P_14_24 <= 1
 NC-13-22-14-27: P_13_22 + P_14_27 <= 1
 NC-13-22-15-24: P_13_22 + P_15_24 <= 1
 NC-13-22-15-27: P_13_22 + P_15_27 <= 1
 NC-13-22-16-25: P_13_22 + P_16_25 <= 1
 NC-13-22-16-28: P_13_22 + P_16_28 <= 1
 NC-13-22-16-30: P_13_22 + P_16_30 <= 1
 NC-13-22-17-25: P_13_22 + P_17_25 <= 1
 NC-13-22-17-28: P_13_22 + P_17_28 <= 1
 NC-13-22-17-30: P_13_22 + P_17_30 <= 1
 NC-13-22-18-30: P_13_22 + P_18_30 <= 1
 NC-13-22-19-30: P_13_22 + P_19_30 <= 1
 NC-13-22-20-25: P_13_22 + P_20_25 <= 1
 NC-13-22-20-28: P_13_22 + P_20_28 <= 1
 NC-13-22-20-30: P_13_22 + P_20_30 <= 1
 NC-13-22-21-25: P_13_22 + P_21_25 <= 1
 NC-13-22-21-28: P_13_22 + P_21_28 <= 1
 NC-13-22-21-30: P_13_22 + P_21_30 <= 1
 NC-13-23-14-24: P_13_23 + P_14_24 <= 1
 NC-13-23-14-27: P_13_23 + P_14_27 <= 1
 NC-13-23-15-24: P_13_23 + P_15_24 <= 1
 NC-13-23-15-27: P_13_23 + P_15_27 <= 1
 NC-13-23-16-25: P_13_23 + P_16_25 <= 1
 NC-13-23-16-28: P_13_23 + P_16_28 <= 1
 NC-13-23-16-30: P_13_23 + P_16_30 <= 1
 NC-13-23-17-25: P_13_23 + P_17_25 <= 1
 NC-13-23-17-28: P_13_23 + P_17_28 <= 1
 NC-13-23-17-30: P_13_23 + P_17_30 <= 1
 NC-13-23-18-30: P_13_23 + P_18_30 <= 1
 NC-13-23-19-30: P_13_23 + P_19_30 <= 1
 NC-13-23-20-25: P_13_23 + P_20_25 <= 1
 NC-13-23-20-28: P_13_23 + P_20_28 <= 1
 NC-13-23-20-30: P_13_23 + P_20_30 <= 1
 NC-13-23-21-25: P_13_23 + P_21_25 <= 1
 NC-13-23-21-28: P_13_23 + P_21_28 <= 1
 NC-13-23-21-30: P_13_23 + P_21_30 <= 1
 NC-13-23-22-30: P_13_23 + P_22_30 <= 1
 NC-13-24-14-27: P_13_24 + P_14_27 <= 1
 NC-13-24-15-27: P_13_24 + P_15_27 <= 1
 NC-13-24-16-25: P_13_24 + P_16_25 <= 1
 NC-13-24-16-28: P_13_24 + P_16_28 <= 1
 NC-13-24-16-30: P_13_24 + P_16_30 <= 1
 NC-13-24-17-25: P_13_24 + P_17_25 <= 1
 NC-13-24-17-28: P_13_24 + P_17_28 <= 1
 NC-13-24-17-30: P_13_24 + P_17_30 <= 1
 NC-13-24-18-30: P_13_24 + P_18_30 <= 1
 NC-13-24-19-30: P_13_24 + P_19_30 <= 1
 NC-13-24-20-25: P_13_24 + P_20_25 <= 1
 NC-13-24-20-28: P_13_24 + P_20_28 <= 1
 NC-13-24-20-30: P_13_24 + P_20_30 <= 1
 NC-13-24-21-25: P_13_24 + P_21_25 <= 1
 NC-13-24-21-28: P_13_24 + P_21_28 <= 1
 NC-13-24-21-30: P_13_24 + P_21_30 <= 1
 NC-13-24-22-30: P_13_24 + P_22_30 <= 1
 NC-13-24-23-30: P_13_24 + P_23_30 <= 1
 NC-13-26-14-27: P_13_26 + P_14_27 <= 1
 NC-13-26-15-27: P_13_26 + P_15_27 <= 1
 NC-13-26-16-28: P_13_26 + P_16_28 <= 1
 NC-13-26-16-30: P_13_26 + P_16_30 <= 1
 NC-13-26-17-28: P_13_26 + P_17_28 <= 1
 NC-13-26-17-30: P_13_26 + P_17_30 <= 1
 NC-13-26-18-30: P_13_26 + P_18_30 <= 1
 NC-13-26-19-30: P_13_26 + P_19_30 <= 1
 NC-13-26-20-28: P_13_26 + P_20_28 <= 1
 NC-13-26-20-30: P_13_26 + P_20_30 <= 1
 NC-13-26-21-28: P_13_26 + P_21_28 <= 1
 NC-13-26-21-30: P_13_26 + P_21_30 <= 1
 NC-13-26-22-30: P_13_26 + P_22_30 <= 1
 NC-13-26-23-30: P_13_26 + P_23_30 <= 1
 NC-13-26-24-28: P_13_26 + P_24_28 <= 1
 NC-13-26-24-30: P_13_26 + P_24_30 <= 1
 NC-13-27-16-28: P_13_27 + P_16_28 <= 1
 NC-13-27-16-30: P_13_27 + P_16_30 <= 1
 NC-13-27-17-28: P_13_27 + P_17_28 <= 1
 NC-13-27-17-30: P_13_27 + P_17_30 <= 1
 NC-13-27-18-30: P_13_27 + P_18_30 <= 1
 NC-13-27-19-30: P_13_27 + P_19_30 <= 1
 NC-13-27-20-28: P_13_27 + P_20_28 <= 1
 NC-13-27-20-30: P_13_27 + P_20_30 <= 1
 NC-13-27-21-28: P_13_27 + P_21_28 <= 1
 NC-13-27-21-30: P_13_27 + P_21_30 <= 1
 NC-13-27-22-30: P_13_27 + P_22_30 <= 1
 NC-13-27-23-30: P_13_27 + P_23_30 <= 1
 NC-13-27-24-28: P_13_27 + P_24_28 <= 1
 NC-13-27-24-30: P_13_27 + P_24_30 <= 1
 NC-13-27-26-30: P_13_27 + P_26_30 <= 1
 NC-13-29-16-30: P_13_29 + P_16_30 <= 1
 NC-13-29-17-30: P_13_29 + P_17_30 <= 1
 NC-13-29-18-30: P_13_29 + P_18_30 <= 1
 NC-13-29-19-30: P_13_29 + P_19_30 <= 1
 NC-13-29-20-30: P_13_29 + P_20_30 <= 1
 NC-13-29-21-30: P_13_29 + P_21_30 <= 1
 NC-13-29-22-30: P_13_29 + P_22_30 <= 1
 NC-13-29-23-30: P_13_29 + P_23_30 <= 1
 NC-13-29-24-30: P_13_29 + P_24_30 <= 1
 NC-13-29-26-30: P_13_29 + P_26_30 <= 1
 NC-14-20-15-21: P_14_20 + P_15_21 <= 1
 NC-14-20-15-24: P_14_20 + P_15_24 <= 1
 NC-14-20-15-27: P_14_20 + P_15_27 <= 1
 NC-14-20-16-25: P_14_20 + P_16_25 <= 1
 NC-14-20-16-28: P_14_20 + P_16_28 <= 1
 NC-14-20-16-30: P_14_20 + P_16_30 <= 1
 NC-14-20-17-25: P_14_20 + P_17_25 <= 1
 NC-14-20-17-28: P_14_20 + P_17_28 <= 1
 NC-14-20-17-30: P_14_20 + P_17_30 <= 1
 NC-14-20-18-30: P_14_20 + P_18_30 <= 1
 NC-14-20-19-30: P_14_20 + P_19_30 <= 1
 NC-14-21-15-24: P_14_21 + P_15_24 <= 1
 NC-14-21-15-27: P_14_21 + P_15_27 <= 1
 NC-14-21-16-25: P_14_21 + P_16_25 <= 1
 NC-14-21-16-28: P_14_21 + P_16_28 <= 1
 NC-14-21-16-30: P_14_21 + P_16_30 <= 1
 NC-14-21-17-25: P_14_21 + P_17_25 <= 1
 NC-14-21-17-28: P_14_21 + P_17_28 <= 1
 NC-14-21-17-30: P_14_21 + P_17_30 <= 1
 NC-14-21-18-30: P_14_21 + P_18_30 <= 1
 NC-14-21-19-30: P_14_21 + P_19_30 <= 1
 NC-14-21-20-25: P_14_21 + P_20_25 <= 1
 NC-14-21-20-28: P_14_21 + P_20_28 <= 1
 NC-14-21-20-30: P_14_21 + P_20_30 <= 1
 NC-14-24-15-27: P_14_24 + P_15_27 <= 1
 NC-14-24-16-25: P_14_24 + P_16_25 <= 1
 NC-14-24-16-28: P_14_24 + P_16_28 <= 1
 NC-14-24-16-30: P_14_24 + P_16_30 <= 1
 NC-14-24-17-25: P_14_24 + P_17_25 <= 1
 NC-14-24-17-28: P_14_24 + P_17_28 <= 1
 NC-14-24-17-30: P_14_24 + P_17_30 <= 1
 NC-14-24-18-30: P_14_24 + P_18_30 <= 1
 NC-14-24-19-30: P_14_24 + P_19_30 <= 1
 NC-14-24-20-25: P_14_24 + P_20_25 <= 1
 NC-14-24-20-28: P_14_24 + P_20_28 <= 1
 NC-14-24-20-30: P_14_24 + P_20_30 <= 1
 NC-14-24-21-25: P_14_24 + P_21_25 <= 1
 NC-14-24-21-28: P_14_24 + P_21_28 <= 1
 NC-14-24-21-30: P_14_24 + P_21_30 <= 1
 NC-14-24-22-30: P_14_24 + P_22_30 <= 1
 NC-14-24-23-30: P_14_24 + P_23_30 <= 1
 NC-14-27-16-28: P_14_27 + P_16_28 <= 1
 NC-14-27-16-30: P_14_27 + P_16_30 <= 1
 NC-14-27-17-28: P_14_27 + P_17_28 <= 1
 NC-14-27-17-30: P_14_27 + P_17_30 <= 1
 NC-14-27-18-30: P_14_27 + P_18_30 <= 1
 NC-14-27-19-30: P_14_27 + P_19_30 <= 1
 NC-14-27-20-28: P_14_27 + P_20_28 <= 1
 NC-14-27-20-30: P_14_27 + P_20_30 <= 1
 NC-14-27-21-28: P_14_27 + P_21_28 <= 1
 NC-14-27-21-30: P_14_27 + P_21_30 <= 1
 NC-14-27-22-30: P_14_27 + P_22_30 <= 1
 NC-14-27-23-30: P_14_27 + P_23_30 <= 1
 NC-14-27-24-28: P_14_27 + P_24_28 <= 1
 NC-14-27-24-30: P_14_27 + P_24_30 <= 1
 NC-14-27-26-30: P_14_27 + P_26_30 <= 1
 NC-15-20-16-25: P_15_20 + P_16_25 <= 1
 NC-15-20-16-28: P_15_20 + P_16_28 <= 1
 NC-15-20-16-30: P_15_20 + P_16_30 <= 1
 NC-15-20-17-25: P_15_20 + P_17_25 <= 1
 NC-15-20-17-28: P_15_20 + P_17_28 <= 1
 NC-15-20-17-30: P_15_20 + P_17_30 <= 1
 NC-15-20-18-30: P_15_20 + P_18_30 <= 1
 NC-15-20-19-30: P_15_20 + P_19_30 <= 1
 NC-15-21-16-25: P_15_21 + P_16_25 <= 1
 NC-15-21-16-28: P_15_21 + P_16_28 <= 1
 NC-15-21-16-30: P_15_21 + P_16_30 <= 1
 NC-15-21-17-25: P_15_21 + P_17_25 <= 1
 NC-15-21-17-28: P_15_21 + P_17_28 <= 1
 NC-15-21-17-30: P_15_21 + P_17_30 <= 1
 NC-15-21-18-30: P_15_21 + P_18_30 <= 1
 NC-15-21-19-30: P_15_21 + P_19_30 <= 1
 NC-15-21-20-25: P_15_21 + P_20_25 <= 1
 NC-15-21-20-28: P_15_21 + P_20_28 <= 1
 NC-15-21-20-30: P_15_21 + P_20_30 <= 1
 NC-15-24-16-25: P_15_24 + P_16_25 <= 1
 NC-15-24-16-28: P_15_24 + P_16_28 <= 1
 NC-15-24-16-30: P_15_24 + P_16_30 <= 1
 NC-15-24-17-25: P_15_24 + P_17_25 <= 1
 NC-15-24-17-28: P_15_24 + P_17_28 <= 1
 NC-15-24-17-30: P_15_24 + P_17_30 <= 1
 NC-15-24-18-30: P_15_24 + P_18_30 <= 1
 NC-15-24-19-30: P_15_24 + P_19_30 <= 1
 NC-15-24-20-25: P_15_24 + P_20_25 <= 1
 NC-15-24-20-28: P_15_24 + P_20_28 <= 1
 NC-15-24-20-30: P_15_24 + P_20_30 <= 1
 NC-15-24-21-25: P_15_24 + P_21_25 <= 1
 NC-15-24-21-28: P_15_24 + P_21_28 <= 1
 NC-15-24-21-30: P_15_24 + P_21_30 <= 1
 NC-15-24-22-30: P_15_24 + P_22_30 <= 1
 NC-15-24-23-30: P_15_24 + P_23_30 <= 1
 NC-15-27-16-28: P_15_27 + P_16_28 <= 1
 NC-15-27-16-30: P_15_27 + P_16_30 <= 1
 NC-15-27-17-28: P_15_27 + P_17_28 <= 1
 NC-15-27-17-30: P_15_27 + P_17_30 <= 1
 NC-15-27-18-30: P_15_27 + P_18_30 <= 1
 NC-15-27-19-30: P_15_27 + P_19_30 <= 1
 NC-15-27-20-28: P_15_27 + P_20_28 <= 1
 NC-15-27-20-30: P_15_27 + P_20_30 <= 1
 NC-15-27-21-28: P_15_27 + P_21_28 <= 1
 NC-15-27-21-30: P_15_27 + P_21_30 <= 1
 NC-15-27-22-30: P_15_27 + P_22_30 <= 1
 NC-15-27-23-30: P_15_27 + P_23_30 <= 1
 NC-15-27-24-28: P_15_27 + P_24_28 <= 1
 NC-15-27-24-30: P_15_27 + P_24_30 <= 1
 NC-15-27-26-30: P_15_27 + P_26_30 <= 1
 NC-16-25-17-28: P_16_25 + P_17_28 <= 1
 NC-16-25-17-30: P_16_25 + P_17_30 <= 1
 NC-16-25-18-30: P_16_25 + P_18_30 <= 1
 NC-16-25-19-30: P_16_25 + P_19_30 <= 1
 NC-16-25-20-28: P_16_25 + P_20_28 <= 1
 NC-16-25-20-30: P_16_25 + P_20_30 <= 1
 NC-16-25-21-28: P_16_25 + P_21_28 <= 1
 NC-16-25-21-30: P_16_25 + P_21_30 <= 1
 NC-16-25-22-30: P_16_25 + P_22_30 <= 1
 NC-16-25-23-30: P_16_25 + P_23_30 <= 1
 NC-16-25-24-28: P_16_25 + P_24_28 <= 1
 NC-16-25-24-30: P_16_25 + P_24_30 <= 1
 NC-16-28-17-30: P_16_28 + P_17_30 <= 1
 NC-16-28-18-30: P_16_28 + P_18_30 <= 1
 NC-16-28-19-30: P_16_28 + P_19_30 <= 1
 NC-16-28-20-30: P_16_28 + P_20_30 <= 1
 NC-16-28-21-30: P_16_28 + P_21_30 <= 1
 NC-16-28-22-30: P_16_28 + P_22_30 <= 1
 NC-16-28-23-30: P_16_28 + P_23_30 <= 1
 NC-16-28-24-30: P_16_28 + P_24_30 <= 1
 NC-16-28-26-30: P_16_28 + P_26_30 <= 1
 NC-17-25-18-30: P_17_25 + P_18_30 <= 1
 NC-17-25-19-30: P_17_25 + P_19_30 <= 1
 NC-17-25-20-28: P_17_25 + P_20_28 <= 1
 NC-17-25-20-30: P_17_25 + P_20_30 <= 1
 NC-17-25-21-28: P_17_25 + P_21_28 <= 1
 NC-17-25-21-30: P_17_25 + P_21_30 <= 1
 NC-17-25-22-30: P_17_25 + P_22_30 <= 1
 NC-17-25-23-30: P_17_25 + P_23_30 <= 1
 NC-17-25-24-28: P_17_25 + P_24_28 <= 1
 NC-17-25-24-30: P_17_25 + P_24_30 <= 1
 NC-17-28-18-30: P_17_28 + P_18_30 <= 1
 NC-17-28-19-30: P_17_28 + P_19_30 <= 1
 NC-17-28-20-30: P_17_28 + P_20_30 <= 1
 NC-17-28-21-30: P_17_28 + P_21_30 <= 1
 NC-17-28-22-30: P_17_28 + P_22_30 <= 1
 NC-17-28-23-30: P_17_28 + P_23_30 <= 1
 NC-17-28-24-30: P_17_28 + P_24_30 <= 1
 NC-17-28-26-30: P_17_28 + P_26_30 <= 1
 NC-20-25-21-28: P_20_25 + P_21_28 <= 1
 NC-20-25-21-30: P_20_25 + P_21_30 <= 1
 NC-20-25-22-30: P_20_25 + P_22_30 <= 1
 NC-20-25-23-30: P_20_25 + P_23_30 <= 1
 NC-20-25-24-28: P_20_25 + P_24_28 <= 1
 NC-20-25-24-30: P_20_25 + P_24_30 <= 1
 NC-20-28-21-30: P_20_28 + P_21_30 <= 1
 NC-20-28-22-30: P_20_28 + P_22_30 <= 1
 NC-20-28-23-30: P_20_28 + P_23_30 <= 1
 NC-20-28-24-30: P_20_28 + P_24_30 <= 1
 NC-20-28-26-30: P_20_28 + P_26_30 <= 1
 NC-21-25-22-30: P_21_25 + P_22_30 <= 1
 NC-21-25-23-30: P_21_25 + P_23_30 <= 1
 NC-21-25-24-28: P_21_25 + P_24_28 <= 1
 NC-21-25-24-30: P_21_25 + P_24_30 <= 1
 NC-21-28-22-30: P_21_28 + P_22_30 <= 1
 NC-21-28-23-30: P_21_28 + P_23_30 <= 1
 NC-21-28-24-30: P_21_28 + P_24_30 <= 1
 NC-21-28-26-30: P_21_28 + P_26_30 <= 1
 NC-24-28-26-30: P_24_28 + P_26_30 <= 1
 SLIT-2-8: - P_2_8 - P_3_7 + 2 STEM_2_8_3_7 <= 0
 SLOI-2-8: P_2_8 + P_3_7 - STEM_2_8_3_7 <= 1
 SLIT-2-13: - P_2_13 - P_3_12 + 2 STEM_2_13_3_12 <= 0
 SLOI-2-13: P_2_13 + P_3_12 - STEM_2_13_3_12 <= 1
 SLIT-3-12: - P_3_12 - P_4_11 + 2 STEM_3_12_4_11 <= 0
 SLOI-3-12: P_3_12 + P_4_11 - STEM_3_12_4_11 <= 1
 SLIT-3-17: - P_3_17 - P_4_16 + 2 STEM_3_17_4_16 <= 0
 SLOI-3-17: P_3_17 + P_4_16 - STEM_3_17_4_16 <= 1
 SLIT-3-21: - P_3_21 - P_4_20 + 2 STEM_3_21_4_20 <= 0
 SLOI-3-21: P_3_21 + P_4_20 - STEM_3_21_4_20 <= 1
 SLIT-5-13: - P_5_13 - P_6_12 + 2 STEM_5_13_6_12 <= 0
 SLOI-5-13: P_5_13 + P_6_12 - STEM_5_13_6_12 <= 1
 SLIT-5-30: - P_5_30 - P_6_29 + 2 STEM_5_30_6_29 <= 0
 SLOI-5-30: P_5_30 + P_6_29 - STEM_5_30_6_29 <= 1
 SLIT-6-16: - P_6_16 - P_7_15 + 2 STEM_6_16_7_15 <= 0
 SLOI-6-16: P_6_16 + P_7_15 - STEM_6_16_7_15 <= 1
 SLIT-6-26: - P_6_26 - P_7_25 + 2 STEM_6_26_7_25 <= 0
 SLOI-6-26: P_6_26 + P_7_25 - STEM_6_26_7_25 <= 1
 SLIT-6-29: - P_6_29 - P_7_28 + 2 STEM_6_29_7_28 <= 0
 SLOI-6-29: P_6_29 + P_7_28 - STEM_6_29_7_28 <= 1
 SLIT-7-13: - P_7_13 - P_8_12 + 2 STEM_7_13_8_12 <= 0
 SLOI-7-13: P_7_13 + P_8_12 - STEM_7_13_8_12 <= 1
 SLIT-7-25: - P_7_25 - P_8_24 + 2 STEM_7_25_8_24 <= 0
 SLOI-7-25: P_7_25 + P_8_24 - STEM_7_25_8_24 <= 1
 SLIT-7-28: - P_7_28 - P_8_27 + 2 STEM_7_28_8_27 <= 0
 SLOI-7-28: P_7_28 + P_8_27 - STEM_7_28_8_27 <= 1
 SLIT-7-30: - P_7_30 - P_8_29 + 2 STEM_7_30_8_29 <= 0
 SLOI-7-30: P_7_30 + P_8_29 - STEM_7_30_8_29 <= 1
 SLIT-8-17: - P_8_17 - P_9_16 + 2 STEM_8_17_9_16 <= 0
 SLOI-8-17: P_8_17 + P_9_16 - STEM_8_17_9_16 <= 1
 SLIT-8-18: - P_8_18 - P_9_17 + 2 STEM_8_18_9_17 <= 0
 SLOI-8-18: P_8_18 + P_9_17 - STEM_8_18_9_17 <= 1
 SLIT-8-21: - P_8_21 - P_9_20 + 2 STEM_8_21_9_20 <= 0
 SLOI-8-21: P_8_21 + P_9_20 - STEM_8_21_9_20 <= 1
 SLIT-8-22: - P_8_22 - P_9_21 + 2 STEM_8_22_9_21 <= 0
 SLOI-8-22: P_8_22 + P_9_21 - STEM_8_22_9_21 <= 1
 SLIT-12-25: - P_12_25 - P_13_24 + 2 STEM_12_25_13_24 <= 0
 SLOI-12-25: P_12_25 + P_13_24 - STEM_12_25_13_24 <= 1
 SLIT-12-28: - P_12_28 - P_13_27 + 2 STEM_12_28_13_27 <= 0
 SLOI-12-28: P_12_28 + P_13_27 - STEM_12_28_13_27 <= 1
 SLIT-12-30: - P_12_30 - P_13_29 + 2 STEM_12_30_13_29 <= 0
 SLOI-12-30: P_12_30 + P_13_29 - STEM_12_30_13_29 <= 1
 SLIT-13-21: - P_13_21 - P_14_20 + 2 STEM_13_21_14_20 <= 0
 SLOI-13-21: P_13_21 + P_14_20 - STEM_13_21_14_20 <= 1
 SLIT-13-22: - P_13_22 - P_14_21 + 2 STEM_13_22_14_21 <= 0
 SLOI-13-22: P_13_22 + P_14_21 - STEM_13_22_14_21 <= 1
 SLIT-14-21: - P_14_21 - P_15_20 + 2 STEM_14_21_15_20 <= 0
 SLOI-14-21: P_14_21 + P_15_20 - STEM_14_21_15_20 <= 1
 FPIT-2-8: 2 F_2_8 - STEM_2_8_3_7 <= 1
 FPOI-2-8: - F_2_8 + STEM_2_8_3_7 <= 0
 FPIT-2-13: 2 F_2_13 - STEM_2_13_3_12 <= 1
 FPOI-2-13: - F_2_13 + STEM_2_13_3_12 <= 0
 FPIT-3-12: 2 F_3_12 + STEM_2_13_3_12 - STEM_3_12_4_11 <= 1
 FPOI-3-12: - F_3_12 - STEM_2_13_3_12 + STEM_3_12_4_11 <= 0
 FPIT-3-17: 2 F_3_17 - STEM_3_17_4_16 <= 1
 FPOI-3-17: - F_3_17 + STEM_3_17_4_16 <= 0
 FPIT-3-21: 2 F_3_21 - STEM_3_21_4_20 <= 1
 FPOI-3-21: - F_3_21 + STEM_3_21_4_20 <= 0
 FPIT-5-13: 2 F_5_13 - STEM_5_13_6_12 <= 1
 FPOI-5-13: - F_5_13 + STEM_5_13_6_12 <= 0
 FPIT-5-30: 2 F_5_30 - STEM_5_30_6_29 <= 1
 FPOI-5-30: - F_5_30 + STEM_5_30_6_29 <= 0
 FPIT-6-16: 2 F_6_16 - STEM_6_16_7_15 <= 1
 FPOI-6-16: - F_6_16 + STEM_6_16_7_15 <= 0
 FPIT-6-26: 2 F_6_26 - STEM_6_26_7_25 <= 1
 FPOI-6-26: - F_6_26 + STEM_6_26_7_25 <= 0
 FPIT-6-29: 2 F_6_29 + STEM_5_30_6_29 - STEM_6_29_7_28 <= 1
 FPOI-6-29: - F_6_29 - STEM_5_30_6_29 + STEM_6_29_7_28 <= 0
 FPIT-7-13: 2 F_7_13 - STEM_7_13_8_12 <= 1
 FPOI-7-13: - F_7_13 + STEM_7_13_8_12 <= 0
 FPIT-7-25: 2 F_7_25 + STEM_6_26_7_25 - STEM_7_25_8_24 <= 1
 FPOI-7-25: - F_7_25 - STEM_6_26_7_25 + STEM_7_25_8_24 <= 0
 FPIT-7-28: 2 F_7_28 + STEM_6_29_7_28 - STEM_7_28_8_27 <= 1
 FPOI-7-28: - F_7_28 - STEM_6_29_7_28 + STEM_7_28_8_27 <= 0
 FPIT-7-30: 2 F_7_30 - STEM_7_30_8_29 <= 1
 FPOI-7-30: - F_7_30 + STEM_7_30_8_29 <= 0
 FPIT-8-17: 2 F_8_17 - STEM_8_17_9_16 <= 1
 FPOI-8-17: - F_8_17 + STEM_8_17_9_16 <= 0
 FPIT-8-18: 2 F_8_18 - STEM_8_18_9_17 <= 1
 FPOI-8-18: - F_8_18 + STEM_8_18_9_17 <= 0
 FPIT-8-21: 2 F_8_21 - STEM_8_21_9_20 <= 1
 FPOI-8-21: - F_8_21 + STEM_8_21_9_20 <= 0
 FPIT-8-22: 2 F_8_22 - STEM_8_22_9_21 <= 1
 FPOI-8-22: - F_8_22 + STEM_8_22_9_21 <= 0
 FPIT-12-25: 2 F_12_25 - STEM_12_25_13_24 <= 1
 FPOI-12-25: - F_12_25 + STEM_12_25_13_24 <= 0
 FPIT-12-28: 2 F_12_28 - STEM_12_28_13_27 <= 1
 FPOI-12-28: - F_12_28 + STEM_12_28_13_27 <= 0
 FPIT-12-30: 2 F_12_30 - STEM_12_30_13_29 <= 1
 FPOI-12-30: - F_12_30 + STEM_12_30_13_29 <= 0
 FPIT-13-21: 2 F_13_21 - STEM_13_21_14_20 <= 1
 FPOI-13-21: - F_13_21 + STEM_13_21_14_20 <= 0
 FPIT-13-22: 2 F_13_22 - STEM_13_22_14_21 <= 1
 FPOI-13-22: - F_13_22 + STEM_13_22_14_21 <= 0
 FPIT-14-21: 2 F_14_21 + STEM_13_22_14_21 - STEM_14_21_15_20 <= 1
 FPOI-14-21: - F_14_21 - STEM_13_22_14_21 + STEM_14_21_15_20 <= 0
 LPIT-3-7: - L_3_7 + STEM_2_8_3_7 <= 0
 LPOI-3-7: 2 L_3_7 - STEM_2_8_3_7 <= 1
 LPIT-3-12: 2 L_3_12 - STEM_2_13_3_12 + STEM_3_12_4_11 <= 1
 LPOI-3-12: - P_3_12 + STEM_2_13_3_12 - STEM_3_12_4_11 <= 0
 LPIT-4-11: - L_4_11 + STEM_3_12_4_11 <= 0
 LPOI-4-11: 2 L_4_11 - STEM_3_12_4_11 <= 1
 LPIT-4-16: - L_4_16 + STEM_3_17_4_16 <= 0
 LPOI-4-16: 2 L_4_16 - STEM_3_17_4_16 <= 1
 LPIT-4-20: - L_4_20 + STEM_3_21_4_20 <= 0
 LPOI-4-20: 2 L_4_20 - STEM_3_21_4_20 <= 1
 LPIT-6-12: - L_6_12 + STEM_5_13_6_12 <= 0
 LPOI-6-12: 2 L_6_12 - STEM_5_13_6_12 <= 1
 LPIT-6-29: 2 L_6_29 - STEM_5_30_6_29 + STEM_6_29_7_28 <= 1
 LPOI-6-29: - P_6_29 + STEM_5_30_6_29 - STEM_6_29_7_28 <= 0
 LPIT-7-15: - L_7_15 + STEM_6_16_7_15 <= 0
 LPOI-7-15: 2 L_7_15 - STEM_6_16_7_15 <= 1
 LPIT-7-25: 2 L_7_25 - STEM_6_26_7_25 + STEM_7_25_8_24 <= 1
 LPOI-7-25: - P_7_25 + STEM_6_26_7_25 - STEM_7_25_8_24 <= 0
 LPIT-7-28: 2 L_7_28 - STEM_6_29_7_28 + STEM_7_28_8_27 <= 1
 LPOI-7-28: - P_7_28 + STEM_6_29_7_28 - STEM_7_28_8_27 <= 0
 LPIT-8-12: - L_8_12 + STEM_7_13_8_12 <= 0
 LPOI-8-12: 2 L_8_12 - STEM_7_13_8_12 <= 1
 LPIT-8-24: - L_8_24 + STEM_7_25_8_24 <= 0
 LPOI-8-24: 2 L_8_24 - STEM_7_25_8_24 <= 1
 LPIT-8-27: - L_8_27 + STEM_7_28_8_27 <= 0
 LPOI-8-27: 2 L_8_27 - STEM_7_28_8_27 <= 1
 LPIT-8-29: - L_8_29 + STEM_7_30_8_29 <= 0
 LPOI-8-29: 2 L_8_29 - STEM_7_30_8_29 <= 1
 LPIT-9-16: - L_9_16 + STEM_8_17_9_16 <= 0
 LPOI-9-16: 2 L_9_16 - STEM_8_17_9_16 <= 1
 LPIT-9-17: - L_9_17 + STEM_8_18_9_17 <= 0
 LPOI-9-17: 2 L_9_17 - STEM_8_18_9_17 <= 1
 LPIT-9-20: - L_9_20 + STEM_8_21_9_20 <= 0
 LPOI-9-20: 2 L_9_20 - STEM_8_21_9_20 <= 1
 LPIT-9-21: - L_9_21 + STEM_8_22_9_21 <= 0
 LPOI-9-21: 2 L_9_21 - STEM_8_22_9_21 <= 1
 LPIT-13-24: - L_13_24 + STEM_12_25_13_24 <= 0
 LPOI-13-24: 2 L_13_24 - STEM_12_25_13_24 <= 1
 LPIT-13-27: - L_13_27 + STEM_12_28_13_27 <= 0
 LPOI-13-27: 2 L_13_27 - STEM_12_28_13_27 <= 1
 LPIT-13-29: - L_13_29 + STEM_12_30_13_29 <= 0
 LPOI-13-29: 2 L_13_29 - STEM_12_30_13_29 <= 1
 LPIT-14-20: - L_14_20 + STEM_13_21_14_20 <= 0
 LPOI-14-20: 2 L_14_20 - STEM_13_21_14_20 <= 1
 LPIT-14-21: 2 L_14_21 - STEM_13_22_14_21 + STEM_14_21_15_20 <= 1
 LPOI-14-21: - P_14_21 + STEM_13_22_14_21 - STEM_14_21_15_20 <= 0
 LPIT-15-20: - L_15_20 + STEM_14_21_15_20 <= 0
 LPOI-15-20: 2 L_15_20 - STEM_14_21_15_20 <= 1
 UN-1: P_1_6 + P_1_8 + P_1_13 + P_1_30 + X_1 = 1
 UN-2: P_2_6 + P_2_8 + P_2_13 + P_2_30 + X_2 = 1
 UN-3: P_3_7 + P_3_11 + P_3_12 + P_3_16 + P_3_17 + P_3_20 + P_3_21 + P_3_24
   + P_3_27 + X_3 = 1
 UN-4: P_4_11 + P_4_12 + P_4_16 + P_4_17 + P_4_20 + P_4_21 + P_4_24
   + P_4_27 + X_4 = 1
 UN-5: P_5_13 + P_5_30 + X_5 = 1
 UN-6: P_1_6 + P_2_6 + P_6_10 + P_6_11 + P_6_12 + P_6_16 + P_6_17 + P_6_18
   + P_6_19 + P_6_20 + P_6_21 + P_6_22 + P_6_23 + P_6_24 + P_6_26 + P_6_27
   + P_6_29 + X_6 = 1
 UN-7: P_3_7 + P_7_13 + P_7_14 + P_7_15 + P_7_25 + P_7_28 + P_7_30 + X_7
   = 1
 UN-8: P_1_8 + P_2_8 + P_8_12 + P_8_16 + P_8_17 + P_8_18 + P_8_19 + P_8_20
   + P_8_21 + P_8_22 + P_8_23 + P_8_24 + P_8_26 + P_8_27 + P_8_29 + X_8
   = 1
 UN-9: P_9_16 + P_9_17 + P_9_20 + P_9_21 + P_9_24 + P_9_27 + X_9 = 1
 UN-10: P_6_10 + P_10_30 + X_10 = 1
 UN-11: P_3_11 + P_4_11 + P_6_11 + P_11_15 + P_11_25 + P_11_28 + P_11_30
   + X_11 = 1
 UN-12: P_3_12 + P_4_12 + P_6_12 + P_8_12 + P_12_25 + P_12_28 + P_12_30
   + X_12 = 1
 UN-13: P_1_13 + P_2_13 + P_5_13 + P_7_13 + P_13_17 + P_13_18 + P_13_19
   + P_13_20 + P_13_21 + P_13_22 + P_13_23 + P_13_24 + P_13_26 + P_13_27
   + P_13_29 + X_13 = 1
 UN-14: P_7_14 + P_14_20 + P_14_21 + P_14_24 + P_14_27 + X_14 = 1
 UN-15: P_7_15 + P_11_15 + P_15_20 + P_15_21 + P_15_24 + P_15_27 + X_15
   = 1
 UN-16: P_3_16 + P_4_16 + P_6_16 + P_8_16 + P_9_16 + P_16_25 + P_16_28
   + P_16_30 + X_16 = 1
 UN-17: P_3_17 + P_4_17 + P_6_17 + P_8_17 + P_9_17 + P_13_17 + P_17_25
   + P_17_28 + P_17_30 + X_17 = 1
 UN-18: P_6_18 + P_8_18 + P_13_18 + P_18_30 + X_18 = 1
 UN-19: P_6_19 + P_8_19 + P_13_19 + P_19_30 + X_19 = 1
 UN-20: P_3_20 + P_4_20 + P_6_20 + P_8_20 + P_9_20 + P_13_20 + P_14_20
   + P_15_20 + P_20_25 + P_20_28 + P_20_30 + X_20 = 1
 UN-21: P_3_21 + P_4_21 + P_6_21 + P_8_21 + P_9_21 + P_13_21 + P_14_21
   + P_15_21 + P_21_25 + P_21_28 + P_21_30 + X_21 = 1
 UN-22: P_6_22 + P_8_22 + P_13_22 + P_22_30 + X_22 = 1
 UN-23: P_6_23 + P_8_23 + P_13_23 + P_23_30 + X_23 = 1
 UN-24: P_3_24 + P_4_24 + P_6_24 + P_8_24 + P_9_24 + P_13_24 + P_14_24
   + P_15_24 + P_24_28 + P_24_30 + X_24 = 1
 UN-25: P_7_25 + P_11_25 + P_12_25 + P_16_25 + P_17_25 + P_20_25 + P_21_25
   + X_25 = 1
 UN-26: P_6_26 + P_8_26 + P_13_26 + P_26_30 + X_26 = 1
 UN-27: P_3_27 + P_4_27 + P_6_27 + P_8_27 + P_9_27 + P_13_27 + P_14_27
   + P_15_27 + X_27 = 1
 UN-28: P_7_28 + P_11_28 + P_12_28 + P_16_28 + P_17_28 + P_20_28 + P_21_28
   + P_24_28 + X_28 = 1
 UN-29: P_6_29 + P_8_29 + P_13_29 + X_29 = 1
 UN-30: P_1_30 + P_2_30 + P_5_30 + P_7_30 + P_10_30 + P_11_30 + P_12_30
   + P_16_30 + P_17_30 + P_18_30 + P_19_30 + P_20_30 + P_21_30 + P_22_30
   + P_23_30 + P_24_30 + P_26_30 + X_30 = 1
Bounds
Binaries
 P_1_6 P_1_8 P_1_13 P_1_30 P_2_6 P_2_8 P_2_13 P_2_30 P_3_7 P_3_11 P_3_12
 P_3_16 P_3_17 P_3_20 P_3_21 P_3_24 P_3_27 P_4_11 P_4_12 P_4_16 P_4_17
 P_4_20 P_4_21 P_4_24 P_4_27 P_5_13 P_5_30 P_6_10 P_6_11 P_6_12 P_6_16
 P_6_17 P_6_18 P_6_19 P_6_20 P_6_21 P_6_22 P_6_23 P_6_24 P_6_26 P_6_27
 P_6_29 P_7_13 P_7_14 P_7_15 P_7_25 P_7_28 P_7_30 P_8_12 P_8_16 P_8_17
 P_8_18 P_8_19 P_8_20 P_8_21 P_8_22 P_8_23 P_8_24 P_8_26 P_8_27 P_8_29
 P_9_16 P_9_17 P_9_20 P_9_21 P_9_24 P_9_27 P_10_30 P_11_15 P_11_25 P_11_28
 P_11_30 P_12_25 P_12_28 P_12_30 P_13_17 P_13_18 P_13_19 P_13_20 P_13_21
 P_13_22 P_13_23 P_13_24 P_13_26 P_13_27 P_13_29 P_14_20 P_14_21 P_14_24
 P_14_27 P_15_20 P_15_21 P_15_24 P_15_27 P_16_25 P_16_28 P_16_30 P_17_25
 P_17_28 P_17_30 P_18_30 P_19_30 P_20_25 P_20_28 P_20_30 P_21_25 P_21_28
 P_21_30 P_22_30 P_23_30 P_24_28 P_24_30 P_26_30 F_1_6 F_1_8 F_1_13 F_1_30
 F_2_6 F_2_8 F_2_13 F_2_30 F_3_7 F_3_11 F_3_12 F_3_16 F_3_17 F_3_20 F_3_21
 F_3_24 F_3_27 F_4_11 F_4_12 F_4_16 F_4_17 F_4_20 F_4_21 F_4_24 F_4_27
 F_5_13 F_5_30 F_6_10 F_6_11 F_6_12 F_6_16 F_6_17 F_6_18 F_6_19 F_6_20
 F_6_21 F_6_22 F_6_23 F_6_24 F_6_26 F_6_27 F_6_29 F_7_13 F_7_14 F_7_15
 F_7_25 F_7_28 F_7_30 F_8_12 F_8_16 F_8_17 F_8_18 F_8_19 F_8_20 F_8_21
 F_8_22 F_8_23 F_8_24 F_8_26 F_8_27 F_8_29 F_9_16 F_9_17 F_9_20 F_9_21
 F_9_24 F_9_27 F_10_30 F_11_15 F_11_25 F_11_28 F_11_30 F_12_25 F_12_28
 F_12_30 F_13_17 F_13_18 F_13_19 F_13_20 F_13_21 F_13_22 F_13_23 F_13_24
 F_13_26 F_13_27 F_13_29 F_14_20 F_14_21 F_14_24 F_14_27 F_15_20 F_15_21
 F_15_24 F_15_27 F_16_25 F_16_28 F_16_30 F_17_25 F_17_28 F_17_30 F_18_30
 F_19_30 F_20_25 F_20_28 F_20_30 F_21_25 F_21_28 F_21_30 F_22_30 F_23_30
 F_24_28 F_24_30 F_26_30 L_1_6 L_1_8 L_1_13 L_1_30 L_2_6 L_2_8 L_2_13
 L_2_30 L_3_7 L_3_11 L_3_12 L_3_16 L_3_17 L_3_20 L_3_21 L_3_24 L_3_27
 L_4_11 L_4_12 L_4_16 L_4_17 L_4_20 L_4_21 L_4_24 L_4_27 L_5_13 L_5_30
 L_6_10 L_6_11 L_6_12 L_6_16 L_6_17 L_6_18 L_6_19 L_6_20 L_6_21 L_6_22
 L_6_23 L_6_24 L_6_26 L_6_27 L_6_29 L_7_13 L_7_14 L_7_15 L_7_25 L_7_28
 L_7_30 L_8_12 L_8_16 L_8_17 L_8_18 L_8_19 L_8_20 L_8_21 L_8_22 L_8_23
 L_8_24 L_8_26 L_8_27 L_8_29 L_9_16 L_9_17 L_9_20 L_9_21 L_9_24 L_9_27
 L_10_30 L_11_15 L_11_25 L_11_28 L_11_30 L_12_25 L_12_28 L_12_30 L_13_17
 L_13_18 L_13_19 L_13_20 L_13_21 L_13_22 L_13_23 L_13_24 L_13_26 L_13_27
 L_13_29 L_14_20 L_14_21 L_14_24 L_14_27 L_15_20 L_15_21 L_15_24 L_15_27
 L_16_25 L_16_28 L_16_30 L_17_25 L_17_28 L_17_30 L_18_30 L_19_30 L_20_25
 L_20_28 L_20_30 L_21_25 L_21_28 L_21_30 L_22_30 L_23_30 L_24_28 L_24_30
 L_26_30 HAIRPIN_1_6 HAIRPIN_1_8 HAIRPIN_1_13 HAIRPIN_1_30 HAIRPIN_2_6
 HAIRPIN_2_8 HAIRPIN_2_13 HAIRPIN_2_30 HAIRPIN_3_7 HAIRPIN_3_11
 HAIRPIN_3_12 HAIRPIN_3_16 HAIRPIN_3_17 HAIRPIN_3_20 HAIRPIN_3_21
 HAIRPIN_3_24 HAIRPIN_3_27 HAIRPIN_4_11 HAIRPIN_4_12 HAIRPIN_4_16
 HAIRPIN_4_17 HAIRPIN_4_20 HAIRPIN_4_21 HAIRPIN_4_24 HAIRPIN_4_27
 HAIRPIN_5_13 HAIRPIN_5_30 HAIRPIN_6_10 HAIRPIN_6_11 HAIRPIN_6_12
 HAIRPIN_6_16 HAIRPIN_6_17 HAIRPIN_6_18 HAIRPIN_6_19 HAIRPIN_6_20
 HAIRPIN_6_21 HAIRPIN_6_22 HAIRPIN_6_23 HAIRPIN_6_24 HAIRPIN_6_26
 HAIRPIN_6_27 HAIRPIN_6_29 HAIRPIN_7_13 HAIRPIN_7_14 HAIRPIN_7_15
 HAIRPIN_7_25 HAIRPIN_7_28 HAIRPIN_7_30 HAIRPIN_8_12 HAIRPIN_8_16
 HAIRPIN_8_17 HAIRPIN_8_18 HAIRPIN_8_19 HAIRPIN_8_20 HAIRPIN_8_21
 HAIRPIN_8_22 HAIRPIN_8_23 HAIRPIN_8_24 HAIRPIN_8_26 HAIRPIN_8_27
 HAIRPIN_8_29 HAIRPIN_9_16 HAIRPIN_9_17 HAIRPIN_9_20 HAIRPIN_9_21
 HAIRPIN_9_24 HAIRPIN_9_27 HAIRPIN_10_30 HAIRPIN_11_15 HAIRPIN_11_25
 HAIRPIN_11_28 HAIRPIN_11_30 HAIRPIN_12_25 HAIRPIN_12_28 HAIRPIN_12_30
 HAIRPIN_13_17 HAIRPIN_13_18 HAIRPIN_13_19 HAIRPIN_13_20 HAIRPIN_13_21
 HAIRPIN_13_22 HAIRPIN_13_23 HAIRPIN_13_24 HAIRPIN_13_26 HAIRPIN_13_27
 HAIRPIN_13_29 HAIRPIN_14_20 HAIRPIN_14_21 HAIRPIN_14_24 HAIRPIN_14_27
 HAIRPIN_15_20 HAIRPIN_15_21 HAIRPIN_15_24 HAIRPIN_15_27 HAIRPIN_16_25
 HAIRPIN_16_28 HAIRPIN_16_30 HAIRPIN_17_25 HAIRPIN_17_28 HAIRPIN_17_30
 HAIRPIN_18_30 HAIRPIN_19_30 HAIRPIN_20_25 HAIRPIN_20_28 HAIRPIN_20_30
 HAIRPIN_21_25 HAIRPIN_21_28 HAIRPIN_21_30 HAIRPIN_22_30 HAIRPIN_23_30
 HAIRPIN_24_28 HAIRPIN_24_30 HAIRPIN_26_30 STEM_2_8_3_7 STEM_2_13_3_12
 STEM_3_12_4_11 STEM_3_17_4_16 STEM_3_21_4_20 STEM_5_13_6_12 STEM_5_30_6_29
 STEM_6_16_7_15 STEM_6_26_7_25 STEM_6_29_7_28 STEM_7_13_8_12 STEM_7_25_8_24
 STEM_7_28_8_27 STEM_7_30_8_29 STEM_8_17_9_16 STEM_8_18_9_17 STEM_8_21_9_20
 STEM_8_22_9_21 STEM_12_25_13_24 STEM_12_28_13_27 STEM_12_30_13_29
 STEM_13_21_14_20 STEM_13_22_14_21 STEM_14_21_15_20 X_1 X_2 X_3 X_4 X_5 X_6
 X_7 X_8 X_9 X_10 X_11 X_12 X_13 X_14 X_15 X_16 X_17 X_18 X_19 X_20 X_21
 X_22 X_23 X_24 X_25 X_26 X_27 X_28 X_29 X_30
End
